*SENSE:Minimize
NAME          MCES
ROWS
 N  OBJ
 L  _C1
 L  _C2
 L  _C3
 L  _C4
 L  _C5
 L  _C6
 L  _C7
 L  _C8
 L  _C9
 L  _C10
 L  _C11
 L  _C12
 L  _C13
 L  _C14
 L  _C15
 L  _C16
 L  _C17
 L  _C18
 L  _C19
 L  _C20
 L  _C21
 L  _C22
 L  _C23
 L  _C24
 L  _C25
 L  _C26
 L  _C27
 L  _C28
 L  _C29
 L  _C30
 L  _C31
 L  _C32
 L  _C33
 L  _C34
 L  _C35
 L  _C36
 L  _C37
 L  _C38
 L  _C39
 L  _C40
 L  _C41
 L  _C42
 L  _C43
 L  _C44
 L  _C45
 L  _C46
 L  _C47
 L  _C48
 L  _C49
 L  _C50
 E  _C51
 E  _C52
 E  _C53
 E  _C54
 E  _C55
 E  _C56
 E  _C57
 E  _C58
 E  _C59
 E  _C60
 E  _C61
 E  _C62
 E  _C63
 E  _C64
 E  _C65
 E  _C66
 E  _C67
 E  _C68
 E  _C69
 E  _C70
 E  _C71
 E  _C72
 E  _C73
 E  _C74
 E  _C75
 E  _C76
 E  _C77
 E  _C78
 E  _C79
 E  _C80
 E  _C81
 E  _C82
 E  _C83
 E  _C84
 E  _C85
 E  _C86
 E  _C87
 E  _C88
 E  _C89
 E  _C90
 E  _C91
 E  _C92
 E  _C93
 E  _C94
 E  _C95
 E  _C96
 E  _C97
 E  _C98
 E  _C99
 E  _C100
 E  _C101
 E  _C102
 E  _C103
 E  _C104
 E  _C105
 E  _C106
 E  _C107
 L  _C108
 L  _C109
 L  _C110
 L  _C111
 L  _C112
 L  _C113
 L  _C114
 L  _C115
 L  _C116
 L  _C117
 L  _C118
 L  _C119
 L  _C120
 L  _C121
 L  _C122
 L  _C123
 L  _C124
 L  _C125
 L  _C126
 L  _C127
 L  _C128
 L  _C129
 L  _C130
 L  _C131
 L  _C132
 L  _C133
 L  _C134
 L  _C135
 L  _C136
 L  _C137
 L  _C138
 L  _C139
 L  _C140
 L  _C141
 L  _C142
 L  _C143
 L  _C144
 L  _C145
 L  _C146
 L  _C147
 L  _C148
 L  _C149
 L  _C150
 L  _C151
 L  _C152
 L  _C153
 L  _C154
 L  _C155
 L  _C156
 L  _C157
 L  _C158
 L  _C159
 L  _C160
 L  _C161
 L  _C162
 L  _C163
 L  _C164
 L  _C165
 L  _C166
 L  _C167
 L  _C168
 L  _C169
 L  _C170
 L  _C171
 L  _C172
 L  _C173
 L  _C174
 L  _C175
 L  _C176
 L  _C177
 L  _C178
 L  _C179
 L  _C180
 L  _C181
 L  _C182
 L  _C183
 L  _C184
 L  _C185
 L  _C186
 L  _C187
 L  _C188
 L  _C189
 L  _C190
 L  _C191
 L  _C192
 L  _C193
 L  _C194
 L  _C195
 L  _C196
 L  _C197
 L  _C198
 L  _C199
 L  _C200
 L  _C201
 L  _C202
 L  _C203
 L  _C204
 L  _C205
 L  _C206
 L  _C207
 L  _C208
 L  _C209
 L  _C210
 L  _C211
 L  _C212
 L  _C213
 L  _C214
 L  _C215
 L  _C216
 L  _C217
 L  _C218
 L  _C219
 L  _C220
 L  _C221
 L  _C222
 L  _C223
 L  _C224
 L  _C225
 L  _C226
 L  _C227
 L  _C228
 L  _C229
 L  _C230
 L  _C231
 L  _C232
 L  _C233
 L  _C234
 L  _C235
 L  _C236
 L  _C237
 L  _C238
 L  _C239
 L  _C240
 L  _C241
 L  _C242
 L  _C243
 L  _C244
 L  _C245
 L  _C246
 L  _C247
 L  _C248
 L  _C249
 L  _C250
 L  _C251
 L  _C252
 L  _C253
 L  _C254
 L  _C255
 L  _C256
 L  _C257
 L  _C258
 L  _C259
 L  _C260
 L  _C261
 L  _C262
 L  _C263
 L  _C264
 L  _C265
 L  _C266
 L  _C267
 L  _C268
 L  _C269
 L  _C270
 L  _C271
 L  _C272
 L  _C273
 L  _C274
 L  _C275
 L  _C276
 L  _C277
 L  _C278
 L  _C279
 L  _C280
 L  _C281
 L  _C282
 L  _C283
 L  _C284
 L  _C285
 L  _C286
 L  _C287
 L  _C288
 L  _C289
 L  _C290
 L  _C291
 L  _C292
 L  _C293
 L  _C294
 L  _C295
 L  _C296
 L  _C297
 L  _C298
 L  _C299
 L  _C300
 L  _C301
 L  _C302
 L  _C303
 L  _C304
 L  _C305
 L  _C306
 L  _C307
 L  _C308
 L  _C309
 L  _C310
 L  _C311
 L  _C312
 L  _C313
 L  _C314
 L  _C315
 L  _C316
 L  _C317
 L  _C318
 L  _C319
 L  _C320
 L  _C321
 L  _C322
 L  _C323
 L  _C324
 L  _C325
 L  _C326
 L  _C327
 L  _C328
 L  _C329
 L  _C330
 L  _C331
 L  _C332
 L  _C333
 L  _C334
 L  _C335
 L  _C336
 L  _C337
 L  _C338
 L  _C339
 L  _C340
 L  _C341
 L  _C342
 L  _C343
 L  _C344
 L  _C345
 L  _C346
 L  _C347
 L  _C348
 L  _C349
 L  _C350
 L  _C351
 L  _C352
 L  _C353
 L  _C354
 L  _C355
 L  _C356
 L  _C357
 L  _C358
 L  _C359
 L  _C360
 L  _C361
 L  _C362
 L  _C363
 L  _C364
 L  _C365
 L  _C366
 L  _C367
 L  _C368
 L  _C369
 L  _C370
 L  _C371
 L  _C372
 L  _C373
 L  _C374
 L  _C375
 L  _C376
 L  _C377
 L  _C378
 L  _C379
 L  _C380
 L  _C381
 L  _C382
 L  _C383
 L  _C384
 L  _C385
 L  _C386
 L  _C387
 L  _C388
 L  _C389
 L  _C390
 L  _C391
 L  _C392
 L  _C393
 L  _C394
 L  _C395
 L  _C396
 L  _C397
 L  _C398
 L  _C399
 L  _C400
 L  _C401
 L  _C402
 L  _C403
 L  _C404
 L  _C405
 L  _C406
 L  _C407
 L  _C408
 L  _C409
 L  _C410
 L  _C411
 L  _C412
 L  _C413
 L  _C414
 L  _C415
 L  _C416
 L  _C417
 L  _C418
 L  _C419
 L  _C420
 L  _C421
 L  _C422
 L  _C423
 L  _C424
 L  _C425
 L  _C426
 L  _C427
 L  _C428
 L  _C429
 L  _C430
 L  _C431
 L  _C432
 L  _C433
 L  _C434
 L  _C435
 L  _C436
 L  _C437
 L  _C438
 L  _C439
 L  _C440
 L  _C441
 L  _C442
 L  _C443
 L  _C444
 L  _C445
 L  _C446
 L  _C447
 L  _C448
 L  _C449
 L  _C450
 L  _C451
 L  _C452
 L  _C453
 L  _C454
 L  _C455
 L  _C456
 L  _C457
 L  _C458
 L  _C459
 L  _C460
 L  _C461
 L  _C462
 L  _C463
 L  _C464
 L  _C465
 L  _C466
 L  _C467
 L  _C468
 L  _C469
 L  _C470
 L  _C471
 L  _C472
 L  _C473
 L  _C474
 L  _C475
 L  _C476
 L  _C477
 L  _C478
 L  _C479
 L  _C480
 L  _C481
 L  _C482
 L  _C483
 L  _C484
 L  _C485
 L  _C486
 L  _C487
 L  _C488
 L  _C489
 L  _C490
 L  _C491
 L  _C492
 L  _C493
 L  _C494
 L  _C495
 L  _C496
 L  _C497
 L  _C498
 L  _C499
 L  _C500
 L  _C501
 L  _C502
 L  _C503
 L  _C504
 L  _C505
 L  _C506
 L  _C507
 L  _C508
 L  _C509
 L  _C510
 L  _C511
 L  _C512
 L  _C513
 L  _C514
 L  _C515
 L  _C516
 L  _C517
 L  _C518
 L  _C519
 L  _C520
 L  _C521
 L  _C522
 L  _C523
 L  _C524
 L  _C525
 L  _C526
 L  _C527
 L  _C528
 L  _C529
 L  _C530
 L  _C531
 L  _C532
 L  _C533
 L  _C534
 L  _C535
 L  _C536
 L  _C537
 L  _C538
 L  _C539
 L  _C540
 L  _C541
 L  _C542
 L  _C543
 L  _C544
 L  _C545
 L  _C546
 L  _C547
 L  _C548
 L  _C549
 L  _C550
 L  _C551
 L  _C552
 L  _C553
 L  _C554
 L  _C555
 L  _C556
 L  _C557
 L  _C558
 L  _C559
 L  _C560
 L  _C561
 L  _C562
 L  _C563
 L  _C564
 L  _C565
 L  _C566
 L  _C567
 L  _C568
 L  _C569
 L  _C570
 L  _C571
 L  _C572
 L  _C573
 L  _C574
 L  _C575
 L  _C576
 L  _C577
 L  _C578
 L  _C579
 L  _C580
 L  _C581
 L  _C582
 L  _C583
 L  _C584
 L  _C585
 L  _C586
 L  _C587
 L  _C588
 L  _C589
 L  _C590
 L  _C591
 L  _C592
 L  _C593
 L  _C594
 L  _C595
 L  _C596
 L  _C597
 L  _C598
 L  _C599
 L  _C600
 L  _C601
 L  _C602
 L  _C603
 L  _C604
 L  _C605
 L  _C606
 L  _C607
 L  _C608
 L  _C609
 L  _C610
 L  _C611
 L  _C612
 L  _C613
 L  _C614
 L  _C615
 L  _C616
 L  _C617
 L  _C618
 L  _C619
 L  _C620
 L  _C621
 L  _C622
 L  _C623
 L  _C624
 L  _C625
 L  _C626
 L  _C627
 L  _C628
 L  _C629
 L  _C630
 L  _C631
 L  _C632
 L  _C633
 L  _C634
 L  _C635
 L  _C636
 L  _C637
 L  _C638
 L  _C639
 L  _C640
 L  _C641
 L  _C642
 L  _C643
 L  _C644
 L  _C645
 L  _C646
 L  _C647
 L  _C648
 L  _C649
 L  _C650
 L  _C651
 L  _C652
 L  _C653
 L  _C654
 L  _C655
 L  _C656
 L  _C657
 L  _C658
 L  _C659
 L  _C660
 L  _C661
 L  _C662
 L  _C663
 L  _C664
 L  _C665
 L  _C666
 L  _C667
 L  _C668
 L  _C669
 L  _C670
 L  _C671
 L  _C672
 L  _C673
 L  _C674
 L  _C675
 L  _C676
 L  _C677
 L  _C678
 L  _C679
 L  _C680
 L  _C681
 L  _C682
 L  _C683
 L  _C684
 L  _C685
 L  _C686
 L  _C687
 L  _C688
 L  _C689
 L  _C690
 L  _C691
 L  _C692
 L  _C693
 L  _C694
 L  _C695
 L  _C696
 L  _C697
 L  _C698
 L  _C699
 L  _C700
 L  _C701
 L  _C702
 L  _C703
 L  _C704
 L  _C705
 L  _C706
 L  _C707
 L  _C708
 L  _C709
 L  _C710
 L  _C711
 L  _C712
 L  _C713
 L  _C714
 L  _C715
 L  _C716
 L  _C717
 L  _C718
 L  _C719
 L  _C720
 L  _C721
 L  _C722
 L  _C723
 L  _C724
 L  _C725
 L  _C726
 L  _C727
 L  _C728
 L  _C729
 L  _C730
 L  _C731
 L  _C732
 L  _C733
 L  _C734
 L  _C735
 L  _C736
 L  _C737
 L  _C738
 L  _C739
 L  _C740
 L  _C741
 L  _C742
 L  _C743
 L  _C744
 L  _C745
 L  _C746
 L  _C747
 L  _C748
 L  _C749
 L  _C750
 L  _C751
 L  _C752
 L  _C753
 L  _C754
 L  _C755
 L  _C756
 L  _C757
 L  _C758
 L  _C759
 L  _C760
 L  _C761
 L  _C762
 L  _C763
 L  _C764
 L  _C765
 L  _C766
 L  _C767
 L  _C768
 L  _C769
 L  _C770
 L  _C771
 L  _C772
 L  _C773
 L  _C774
 L  _C775
 L  _C776
 L  _C777
 L  _C778
 L  _C779
 L  _C780
 L  _C781
 L  _C782
 L  _C783
 L  _C784
 L  _C785
 L  _C786
 L  _C787
 L  _C788
 L  _C789
 L  _C790
 L  _C791
 L  _C792
 L  _C793
 L  _C794
 L  _C795
 L  _C796
 L  _C797
 L  _C798
 L  _C799
 L  _C800
 L  _C801
 L  _C802
 L  _C803
 L  _C804
 L  _C805
 L  _C806
 L  _C807
 L  _C808
 L  _C809
 L  _C810
 L  _C811
 L  _C812
 L  _C813
 L  _C814
 L  _C815
 L  _C816
 L  _C817
 L  _C818
 L  _C819
 L  _C820
 L  _C821
 L  _C822
 L  _C823
 L  _C824
 L  _C825
 L  _C826
 L  _C827
 L  _C828
 L  _C829
 L  _C830
 L  _C831
 L  _C832
 L  _C833
 L  _C834
 L  _C835
 L  _C836
 L  _C837
 L  _C838
 L  _C839
 L  _C840
 L  _C841
 L  _C842
 L  _C843
 L  _C844
 L  _C845
 L  _C846
 L  _C847
 L  _C848
 L  _C849
 L  _C850
 L  _C851
 L  _C852
 L  _C853
 L  _C854
 L  _C855
 L  _C856
 L  _C857
 L  _C858
 L  _C859
 L  _C860
 L  _C861
 L  _C862
 L  _C863
 L  _C864
 L  _C865
 L  _C866
 L  _C867
 L  _C868
 L  _C869
 L  _C870
 L  _C871
 L  _C872
 L  _C873
 L  _C874
 L  _C875
 L  _C876
 L  _C877
 L  _C878
 L  _C879
 L  _C880
 L  _C881
 L  _C882
 L  _C883
 L  _C884
 L  _C885
 L  _C886
 L  _C887
 L  _C888
 L  _C889
 L  _C890
 L  _C891
 L  _C892
 L  _C893
 L  _C894
 L  _C895
 L  _C896
 L  _C897
 L  _C898
 L  _C899
 L  _C900
 L  _C901
 L  _C902
 L  _C903
 L  _C904
 L  _C905
 L  _C906
 L  _C907
 L  _C908
 L  _C909
 L  _C910
 L  _C911
 L  _C912
 L  _C913
 L  _C914
 L  _C915
 L  _C916
 L  _C917
 L  _C918
 L  _C919
 L  _C920
 L  _C921
 L  _C922
 L  _C923
 L  _C924
 L  _C925
 L  _C926
 L  _C927
 L  _C928
 L  _C929
 L  _C930
 L  _C931
 L  _C932
 L  _C933
 L  _C934
 L  _C935
 L  _C936
 L  _C937
 L  _C938
 L  _C939
 L  _C940
 L  _C941
 L  _C942
 L  _C943
 L  _C944
 L  _C945
 L  _C946
 L  _C947
 L  _C948
 L  _C949
 L  _C950
 L  _C951
 L  _C952
 L  _C953
 L  _C954
 L  _C955
 L  _C956
 L  _C957
 L  _C958
 L  _C959
 L  _C960
 L  _C961
 L  _C962
 L  _C963
 L  _C964
 L  _C965
 L  _C966
 L  _C967
 L  _C968
 L  _C969
 L  _C970
 L  _C971
 L  _C972
 L  _C973
 L  _C974
 L  _C975
 L  _C976
 L  _C977
 L  _C978
 L  _C979
 L  _C980
 L  _C981
 L  _C982
 L  _C983
 L  _C984
 L  _C985
 L  _C986
 L  _C987
 L  _C988
 L  _C989
 L  _C990
 L  _C991
 L  _C992
 L  _C993
 L  _C994
 L  _C995
 L  _C996
 L  _C997
 L  _C998
 L  _C999
 L  _C1000
 L  _C1001
 L  _C1002
 L  _C1003
 L  _C1004
 L  _C1005
 L  _C1006
 L  _C1007
 L  _C1008
 L  _C1009
 L  _C1010
 L  _C1011
 L  _C1012
 L  _C1013
 L  _C1014
 L  _C1015
 L  _C1016
 L  _C1017
 L  _C1018
 L  _C1019
 L  _C1020
 L  _C1021
 L  _C1022
 L  _C1023
 L  _C1024
 L  _C1025
 L  _C1026
 L  _C1027
 L  _C1028
 L  _C1029
 L  _C1030
 L  _C1031
 L  _C1032
 L  _C1033
 L  _C1034
 L  _C1035
 L  _C1036
 L  _C1037
 L  _C1038
 L  _C1039
 L  _C1040
 L  _C1041
 L  _C1042
 L  _C1043
 L  _C1044
 L  _C1045
 L  _C1046
 L  _C1047
 L  _C1048
 L  _C1049
 L  _C1050
 L  _C1051
 L  _C1052
 L  _C1053
 L  _C1054
 L  _C1055
 L  _C1056
 L  _C1057
 L  _C1058
 L  _C1059
 L  _C1060
 L  _C1061
 L  _C1062
 L  _C1063
 L  _C1064
 L  _C1065
 L  _C1066
 L  _C1067
 L  _C1068
 L  _C1069
 L  _C1070
 L  _C1071
 L  _C1072
 L  _C1073
 L  _C1074
 L  _C1075
 L  _C1076
 L  _C1077
 L  _C1078
 L  _C1079
 L  _C1080
 L  _C1081
 L  _C1082
 L  _C1083
 L  _C1084
 L  _C1085
 L  _C1086
 L  _C1087
 L  _C1088
 L  _C1089
 L  _C1090
 L  _C1091
 L  _C1092
 L  _C1093
 L  _C1094
 L  _C1095
 L  _C1096
 L  _C1097
 L  _C1098
 L  _C1099
 L  _C1100
 L  _C1101
 L  _C1102
 L  _C1103
 L  _C1104
 L  _C1105
 L  _C1106
 L  _C1107
 L  _C1108
 L  _C1109
 L  _C1110
 L  _C1111
 L  _C1112
 L  _C1113
 L  _C1114
 L  _C1115
 L  _C1116
 L  _C1117
 L  _C1118
 L  _C1119
 L  _C1120
 L  _C1121
 L  _C1122
 L  _C1123
 L  _C1124
 L  _C1125
 L  _C1126
 L  _C1127
 L  _C1128
 L  _C1129
 L  _C1130
 L  _C1131
 L  _C1132
 L  _C1133
 L  _C1134
 L  _C1135
 L  _C1136
 L  _C1137
 L  _C1138
 L  _C1139
 L  _C1140
 L  _C1141
 L  _C1142
 L  _C1143
 L  _C1144
 L  _C1145
 L  _C1146
 L  _C1147
 L  _C1148
 L  _C1149
 L  _C1150
 L  _C1151
 L  _C1152
 L  _C1153
 L  _C1154
 L  _C1155
 L  _C1156
 L  _C1157
 L  _C1158
 L  _C1159
 L  _C1160
 L  _C1161
 L  _C1162
 L  _C1163
 L  _C1164
 L  _C1165
 L  _C1166
 L  _C1167
 L  _C1168
 L  _C1169
 L  _C1170
 L  _C1171
 L  _C1172
 L  _C1173
 L  _C1174
 L  _C1175
 L  _C1176
 L  _C1177
 L  _C1178
 L  _C1179
 L  _C1180
 L  _C1181
 L  _C1182
 L  _C1183
 L  _C1184
 L  _C1185
 L  _C1186
 L  _C1187
 L  _C1188
 L  _C1189
 L  _C1190
 L  _C1191
 L  _C1192
 L  _C1193
 L  _C1194
 L  _C1195
 L  _C1196
 L  _C1197
 L  _C1198
 L  _C1199
 L  _C1200
 L  _C1201
 L  _C1202
 L  _C1203
 L  _C1204
 L  _C1205
 L  _C1206
 L  _C1207
 L  _C1208
 L  _C1209
 L  _C1210
 L  _C1211
 L  _C1212
 L  _C1213
 L  _C1214
 L  _C1215
 L  _C1216
 L  _C1217
 L  _C1218
 L  _C1219
 L  _C1220
 L  _C1221
 L  _C1222
 L  _C1223
 L  _C1224
 L  _C1225
 L  _C1226
 L  _C1227
 L  _C1228
 L  _C1229
 L  _C1230
 L  _C1231
 L  _C1232
 L  _C1233
 L  _C1234
 L  _C1235
 L  _C1236
 L  _C1237
 L  _C1238
 L  _C1239
 L  _C1240
 L  _C1241
 L  _C1242
 L  _C1243
 L  _C1244
 L  _C1245
 L  _C1246
 L  _C1247
 L  _C1248
 L  _C1249
 L  _C1250
 L  _C1251
 L  _C1252
 L  _C1253
 L  _C1254
 L  _C1255
 L  _C1256
 L  _C1257
 L  _C1258
 L  _C1259
 L  _C1260
 L  _C1261
 L  _C1262
 L  _C1263
 L  _C1264
 L  _C1265
 L  _C1266
 L  _C1267
 L  _C1268
 L  _C1269
 L  _C1270
 L  _C1271
 L  _C1272
 L  _C1273
 L  _C1274
 L  _C1275
 L  _C1276
 L  _C1277
 L  _C1278
 L  _C1279
 L  _C1280
 L  _C1281
 L  _C1282
 L  _C1283
 L  _C1284
 L  _C1285
 L  _C1286
 L  _C1287
 L  _C1288
 L  _C1289
 L  _C1290
 L  _C1291
 L  _C1292
 L  _C1293
 L  _C1294
 L  _C1295
 L  _C1296
 L  _C1297
 L  _C1298
 L  _C1299
 L  _C1300
 L  _C1301
 L  _C1302
 L  _C1303
 L  _C1304
 L  _C1305
 L  _C1306
 L  _C1307
 L  _C1308
 L  _C1309
 L  _C1310
 L  _C1311
 L  _C1312
 L  _C1313
 L  _C1314
 L  _C1315
 L  _C1316
 L  _C1317
 L  _C1318
 L  _C1319
 L  _C1320
 L  _C1321
 L  _C1322
 L  _C1323
 L  _C1324
 L  _C1325
 L  _C1326
 L  _C1327
 L  _C1328
 L  _C1329
 L  _C1330
 L  _C1331
 L  _C1332
 L  _C1333
 L  _C1334
 L  _C1335
 L  _C1336
 L  _C1337
 L  _C1338
 L  _C1339
 L  _C1340
 L  _C1341
 L  _C1342
 L  _C1343
 L  _C1344
 L  _C1345
 L  _C1346
 L  _C1347
 L  _C1348
 L  _C1349
 L  _C1350
 L  _C1351
 L  _C1352
 L  _C1353
 L  _C1354
 L  _C1355
 L  _C1356
 L  _C1357
 L  _C1358
 L  _C1359
 L  _C1360
 L  _C1361
 L  _C1362
 L  _C1363
 L  _C1364
 L  _C1365
 L  _C1366
 L  _C1367
 L  _C1368
 L  _C1369
 L  _C1370
 L  _C1371
 L  _C1372
 L  _C1373
 L  _C1374
 L  _C1375
 L  _C1376
 L  _C1377
 L  _C1378
 L  _C1379
 L  _C1380
 L  _C1381
 L  _C1382
 L  _C1383
 L  _C1384
 L  _C1385
 L  _C1386
 L  _C1387
 L  _C1388
 L  _C1389
 L  _C1390
 L  _C1391
 L  _C1392
 L  _C1393
 L  _C1394
 L  _C1395
 L  _C1396
 L  _C1397
 L  _C1398
 L  _C1399
 L  _C1400
 L  _C1401
 L  _C1402
 L  _C1403
 L  _C1404
 L  _C1405
 L  _C1406
 L  _C1407
 L  _C1408
 L  _C1409
 L  _C1410
 L  _C1411
 L  _C1412
 L  _C1413
 L  _C1414
 L  _C1415
 L  _C1416
 L  _C1417
 L  _C1418
 L  _C1419
 L  _C1420
 L  _C1421
 L  _C1422
 L  _C1423
 L  _C1424
 L  _C1425
 L  _C1426
 L  _C1427
 L  _C1428
 L  _C1429
 L  _C1430
 L  _C1431
 L  _C1432
 L  _C1433
 L  _C1434
 L  _C1435
 L  _C1436
 L  _C1437
 L  _C1438
 L  _C1439
 L  _C1440
 L  _C1441
 L  _C1442
 L  _C1443
 L  _C1444
 L  _C1445
 L  _C1446
 L  _C1447
 L  _C1448
 L  _C1449
 L  _C1450
 L  _C1451
 L  _C1452
 L  _C1453
 L  _C1454
 L  _C1455
 L  _C1456
 L  _C1457
 L  _C1458
 L  _C1459
 L  _C1460
 L  _C1461
 L  _C1462
 L  _C1463
 L  _C1464
 L  _C1465
 L  _C1466
 L  _C1467
 L  _C1468
 L  _C1469
 L  _C1470
 L  _C1471
 L  _C1472
 L  _C1473
 L  _C1474
 L  _C1475
 L  _C1476
 L  _C1477
 L  _C1478
 L  _C1479
 L  _C1480
 L  _C1481
 L  _C1482
 L  _C1483
 L  _C1484
 L  _C1485
 L  _C1486
 L  _C1487
 L  _C1488
 L  _C1489
 L  _C1490
 L  _C1491
 L  _C1492
 L  _C1493
 L  _C1494
 L  _C1495
 L  _C1496
 L  _C1497
 L  _C1498
 L  _C1499
 L  _C1500
 L  _C1501
 L  _C1502
 L  _C1503
 L  _C1504
 L  _C1505
 L  _C1506
 L  _C1507
 L  _C1508
 L  _C1509
 L  _C1510
 L  _C1511
 L  _C1512
 L  _C1513
 L  _C1514
 L  _C1515
 L  _C1516
 L  _C1517
 L  _C1518
 L  _C1519
 L  _C1520
 L  _C1521
 L  _C1522
 L  _C1523
 L  _C1524
 L  _C1525
 L  _C1526
 L  _C1527
 L  _C1528
 L  _C1529
 L  _C1530
 L  _C1531
 L  _C1532
 L  _C1533
COLUMNS
    MARK      'MARKER'                 'INTORG'
    edgepairs_((0,_1),_(0,_1))  _C51       1.000000000000e+00
    edgepairs_((0,_1),_(0,_1))  _C80       1.000000000000e+00
    edgepairs_((0,_1),_(0,_1))  _C108      1.000000000000e+00
    edgepairs_((0,_1),_(0,_1))  _C136      1.000000000000e+00
    edgepairs_((0,_1),_(0,_1))  _C808      1.000000000000e+00
    edgepairs_((0,_1),_(0,_1))  _C837      1.000000000000e+00
    MARK      'MARKER'                 'INTEND'
    MARK      'MARKER'                 'INTORG'
    edgepairs_((0,_1),_(1,_2))  _C51       1.000000000000e+00
    edgepairs_((0,_1),_(1,_2))  _C81       1.000000000000e+00
    edgepairs_((0,_1),_(1,_2))  _C109      1.000000000000e+00
    edgepairs_((0,_1),_(1,_2))  _C137      1.000000000000e+00
    edgepairs_((0,_1),_(1,_2))  _C837      1.000000000000e+00
    edgepairs_((0,_1),_(1,_2))  _C866      1.000000000000e+00
    MARK      'MARKER'                 'INTEND'
    MARK      'MARKER'                 'INTORG'
    edgepairs_((0,_1),_(1,_3))  _C51       1.000000000000e+00
    edgepairs_((0,_1),_(1,_3))  _C82       1.000000000000e+00
    edgepairs_((0,_1),_(1,_3))  _C110      1.000000000000e+00
    edgepairs_((0,_1),_(1,_3))  _C138      1.000000000000e+00
    edgepairs_((0,_1),_(1,_3))  _C837      1.000000000000e+00
    edgepairs_((0,_1),_(1,_3))  _C895      1.000000000000e+00
    MARK      'MARKER'                 'INTEND'
    MARK      'MARKER'                 'INTORG'
    edgepairs_((0,_1),_(11,_12))  _C51       1.000000000000e+00
    edgepairs_((0,_1),_(11,_12))  _C93       1.000000000000e+00
    edgepairs_((0,_1),_(11,_12))  _C121      1.000000000000e+00
    edgepairs_((0,_1),_(11,_12))  _C149      1.000000000000e+00
    edgepairs_((0,_1),_(11,_12))  _C1127     1.000000000000e+00
    edgepairs_((0,_1),_(11,_12))  _C1156     1.000000000000e+00
    MARK      'MARKER'                 'INTEND'
    MARK      'MARKER'                 'INTORG'
    edgepairs_((0,_1),_(11,_18))  _C51       1.000000000000e+00
    edgepairs_((0,_1),_(11,_18))  _C94       1.000000000000e+00
    edgepairs_((0,_1),_(11,_18))  _C122      1.000000000000e+00
    edgepairs_((0,_1),_(11,_18))  _C150      1.000000000000e+00
    edgepairs_((0,_1),_(11,_18))  _C1127     1.000000000000e+00
    edgepairs_((0,_1),_(11,_18))  _C1330     1.000000000000e+00
    MARK      'MARKER'                 'INTEND'
    MARK      'MARKER'                 'INTORG'
    edgepairs_((0,_1),_(11,_23))  _C51       1.000000000000e+00
    edgepairs_((0,_1),_(11,_23))  _C95       1.000000000000e+00
    edgepairs_((0,_1),_(11,_23))  _C123      1.000000000000e+00
    edgepairs_((0,_1),_(11,_23))  _C151      1.000000000000e+00
    edgepairs_((0,_1),_(11,_23))  _C1127     1.000000000000e+00
    edgepairs_((0,_1),_(11,_23))  _C1475     1.000000000000e+00
    MARK      'MARKER'                 'INTEND'
    MARK      'MARKER'                 'INTORG'
    edgepairs_((0,_1),_(12,_13))  _C51       1.000000000000e+00
    edgepairs_((0,_1),_(12,_13))  _C96       1.000000000000e+00
    edgepairs_((0,_1),_(12,_13))  _C124      1.000000000000e+00
    edgepairs_((0,_1),_(12,_13))  _C152      1.000000000000e+00
    edgepairs_((0,_1),_(12,_13))  _C1156     1.000000000000e+00
    edgepairs_((0,_1),_(12,_13))  _C1185     1.000000000000e+00
    MARK      'MARKER'                 'INTEND'
    MARK      'MARKER'                 'INTORG'
    edgepairs_((0,_1),_(13,_14))  _C51       1.000000000000e+00
    edgepairs_((0,_1),_(13,_14))  _C97       1.000000000000e+00
    edgepairs_((0,_1),_(13,_14))  _C125      1.000000000000e+00
    edgepairs_((0,_1),_(13,_14))  _C153      1.000000000000e+00
    edgepairs_((0,_1),_(13,_14))  _C1185     1.000000000000e+00
    edgepairs_((0,_1),_(13,_14))  _C1214     1.000000000000e+00
    MARK      'MARKER'                 'INTEND'
    MARK      'MARKER'                 'INTORG'
    edgepairs_((0,_1),_(14,_15))  _C51       1.000000000000e+00
    edgepairs_((0,_1),_(14,_15))  _C98       1.000000000000e+00
    edgepairs_((0,_1),_(14,_15))  _C126      1.000000000000e+00
    edgepairs_((0,_1),_(14,_15))  _C154      1.000000000000e+00
    edgepairs_((0,_1),_(14,_15))  _C1214     1.000000000000e+00
    edgepairs_((0,_1),_(14,_15))  _C1243     1.000000000000e+00
    MARK      'MARKER'                 'INTEND'
    MARK      'MARKER'                 'INTORG'
    edgepairs_((0,_1),_(15,_16))  _C51       1.000000000000e+00
    edgepairs_((0,_1),_(15,_16))  _C99       1.000000000000e+00
    edgepairs_((0,_1),_(15,_16))  _C127      1.000000000000e+00
    edgepairs_((0,_1),_(15,_16))  _C155      1.000000000000e+00
    edgepairs_((0,_1),_(15,_16))  _C1243     1.000000000000e+00
    edgepairs_((0,_1),_(15,_16))  _C1272     1.000000000000e+00
    MARK      'MARKER'                 'INTEND'
    MARK      'MARKER'                 'INTORG'
    edgepairs_((0,_1),_(15,_17))  _C51       1.000000000000e+00
    edgepairs_((0,_1),_(15,_17))  _C100      1.000000000000e+00
    edgepairs_((0,_1),_(15,_17))  _C128      1.000000000000e+00
    edgepairs_((0,_1),_(15,_17))  _C156      1.000000000000e+00
    edgepairs_((0,_1),_(15,_17))  _C1243     1.000000000000e+00
    edgepairs_((0,_1),_(15,_17))  _C1301     1.000000000000e+00
    MARK      'MARKER'                 'INTEND'
    MARK      'MARKER'                 'INTORG'
    edgepairs_((0,_1),_(15,_18))  _C51       1.000000000000e+00
    edgepairs_((0,_1),_(15,_18))  _C101      1.000000000000e+00
    edgepairs_((0,_1),_(15,_18))  _C129      1.000000000000e+00
    edgepairs_((0,_1),_(15,_18))  _C157      1.000000000000e+00
    edgepairs_((0,_1),_(15,_18))  _C1243     1.000000000000e+00
    edgepairs_((0,_1),_(15,_18))  _C1330     1.000000000000e+00
    MARK      'MARKER'                 'INTEND'
    MARK      'MARKER'                 'INTORG'
    edgepairs_((0,_1),_(18,_19))  _C51       1.000000000000e+00
    edgepairs_((0,_1),_(18,_19))  _C102      1.000000000000e+00
    edgepairs_((0,_1),_(18,_19))  _C130      1.000000000000e+00
    edgepairs_((0,_1),_(18,_19))  _C158      1.000000000000e+00
    edgepairs_((0,_1),_(18,_19))  _C1330     1.000000000000e+00
    edgepairs_((0,_1),_(18,_19))  _C1359     1.000000000000e+00
    MARK      'MARKER'                 'INTEND'
    MARK      'MARKER'                 'INTORG'
    edgepairs_((0,_1),_(19,_21))  _C51       1.000000000000e+00
    edgepairs_((0,_1),_(19,_21))  _C104      1.000000000000e+00
    edgepairs_((0,_1),_(19,_21))  _C132      1.000000000000e+00
    edgepairs_((0,_1),_(19,_21))  _C160      1.000000000000e+00
    edgepairs_((0,_1),_(19,_21))  _C1359     1.000000000000e+00
    edgepairs_((0,_1),_(19,_21))  _C1417     1.000000000000e+00
    MARK      'MARKER'                 'INTEND'
    MARK      'MARKER'                 'INTORG'
    edgepairs_((0,_1),_(3,_4))  _C51       1.000000000000e+00
    edgepairs_((0,_1),_(3,_4))  _C83       1.000000000000e+00
    edgepairs_((0,_1),_(3,_4))  _C111      1.000000000000e+00
    edgepairs_((0,_1),_(3,_4))  _C139      1.000000000000e+00
    edgepairs_((0,_1),_(3,_4))  _C895      1.000000000000e+00
    edgepairs_((0,_1),_(3,_4))  _C924      1.000000000000e+00
    edgepairs_((0,_1),_(3,_4))  _C1533     5.000000000000e-01
    edgepairs_((0,_1),_(3,_4))  OBJ        5.000000000000e-01
    MARK      'MARKER'                 'INTEND'
    MARK      'MARKER'                 'INTORG'
    edgepairs_((0,_1),_(3,_9))  _C51       1.000000000000e+00
    edgepairs_((0,_1),_(3,_9))  _C84       1.000000000000e+00
    edgepairs_((0,_1),_(3,_9))  _C112      1.000000000000e+00
    edgepairs_((0,_1),_(3,_9))  _C140      1.000000000000e+00
    edgepairs_((0,_1),_(3,_9))  _C895      1.000000000000e+00
    edgepairs_((0,_1),_(3,_9))  _C1069     1.000000000000e+00
    edgepairs_((0,_1),_(3,_9))  _C1533     5.000000000000e-01
    edgepairs_((0,_1),_(3,_9))  OBJ        5.000000000000e-01
    MARK      'MARKER'                 'INTEND'
    MARK      'MARKER'                 'INTORG'
    edgepairs_((0,_1),_(4,_5))  _C51       1.000000000000e+00
    edgepairs_((0,_1),_(4,_5))  _C85       1.000000000000e+00
    edgepairs_((0,_1),_(4,_5))  _C113      1.000000000000e+00
    edgepairs_((0,_1),_(4,_5))  _C141      1.000000000000e+00
    edgepairs_((0,_1),_(4,_5))  _C924      1.000000000000e+00
    edgepairs_((0,_1),_(4,_5))  _C953      1.000000000000e+00
    edgepairs_((0,_1),_(4,_5))  _C1533     5.000000000000e-01
    edgepairs_((0,_1),_(4,_5))  OBJ        5.000000000000e-01
    MARK      'MARKER'                 'INTEND'
    MARK      'MARKER'                 'INTORG'
    edgepairs_((0,_1),_(5,_21))  _C51       1.000000000000e+00
    edgepairs_((0,_1),_(5,_21))  _C87       1.000000000000e+00
    edgepairs_((0,_1),_(5,_21))  _C115      1.000000000000e+00
    edgepairs_((0,_1),_(5,_21))  _C143      1.000000000000e+00
    edgepairs_((0,_1),_(5,_21))  _C953      1.000000000000e+00
    edgepairs_((0,_1),_(5,_21))  _C1417     1.000000000000e+00
    MARK      'MARKER'                 'INTEND'
    MARK      'MARKER'                 'INTORG'
    edgepairs_((0,_1),_(5,_6))  _C51       1.000000000000e+00
    edgepairs_((0,_1),_(5,_6))  _C86       1.000000000000e+00
    edgepairs_((0,_1),_(5,_6))  _C114      1.000000000000e+00
    edgepairs_((0,_1),_(5,_6))  _C142      1.000000000000e+00
    edgepairs_((0,_1),_(5,_6))  _C953      1.000000000000e+00
    edgepairs_((0,_1),_(5,_6))  _C982      1.000000000000e+00
    edgepairs_((0,_1),_(5,_6))  _C1533     5.000000000000e-01
    edgepairs_((0,_1),_(5,_6))  OBJ        5.000000000000e-01
    MARK      'MARKER'                 'INTEND'
    MARK      'MARKER'                 'INTORG'
    edgepairs_((0,_1),_(6,_11))  _C51       1.000000000000e+00
    edgepairs_((0,_1),_(6,_11))  _C89       1.000000000000e+00
    edgepairs_((0,_1),_(6,_11))  _C117      1.000000000000e+00
    edgepairs_((0,_1),_(6,_11))  _C145      1.000000000000e+00
    edgepairs_((0,_1),_(6,_11))  _C982      1.000000000000e+00
    edgepairs_((0,_1),_(6,_11))  _C1127     1.000000000000e+00
    MARK      'MARKER'                 'INTEND'
    MARK      'MARKER'                 'INTORG'
    edgepairs_((0,_1),_(6,_7))  _C51       1.000000000000e+00
    edgepairs_((0,_1),_(6,_7))  _C88       1.000000000000e+00
    edgepairs_((0,_1),_(6,_7))  _C116      1.000000000000e+00
    edgepairs_((0,_1),_(6,_7))  _C144      1.000000000000e+00
    edgepairs_((0,_1),_(6,_7))  _C982      1.000000000000e+00
    edgepairs_((0,_1),_(6,_7))  _C1011     1.000000000000e+00
    edgepairs_((0,_1),_(6,_7))  _C1533     5.000000000000e-01
    edgepairs_((0,_1),_(6,_7))  OBJ        5.000000000000e-01
    MARK      'MARKER'                 'INTEND'
    MARK      'MARKER'                 'INTORG'
    edgepairs_((0,_1),_(7,_9))  _C51       1.000000000000e+00
    edgepairs_((0,_1),_(7,_9))  _C91       1.000000000000e+00
    edgepairs_((0,_1),_(7,_9))  _C119      1.000000000000e+00
    edgepairs_((0,_1),_(7,_9))  _C147      1.000000000000e+00
    edgepairs_((0,_1),_(7,_9))  _C1011     1.000000000000e+00
    edgepairs_((0,_1),_(7,_9))  _C1069     1.000000000000e+00
    edgepairs_((0,_1),_(7,_9))  _C1533     5.000000000000e-01
    edgepairs_((0,_1),_(7,_9))  OBJ        5.000000000000e-01
    MARK      'MARKER'                 'INTEND'
    MARK      'MARKER'                 'INTORG'
    edgepairs_((0,_1),__1)  _C51       1.000000000000e+00
    edgepairs_((0,_1),__1)  _C1533     1.000000000000e+00
    edgepairs_((0,_1),__1)  OBJ        1.000000000000e+00
    MARK      'MARKER'                 'INTEND'
    MARK      'MARKER'                 'INTORG'
    edgepairs_((1,_19),_(0,_1))  _C53       1.000000000000e+00
    edgepairs_((1,_19),_(0,_1))  _C80       1.000000000000e+00
    edgepairs_((1,_19),_(0,_1))  _C136      1.000000000000e+00
    edgepairs_((1,_19),_(0,_1))  _C640      1.000000000000e+00
    edgepairs_((1,_19),_(0,_1))  _C810      1.000000000000e+00
    edgepairs_((1,_19),_(0,_1))  _C839      1.000000000000e+00
    MARK      'MARKER'                 'INTEND'
    MARK      'MARKER'                 'INTORG'
    edgepairs_((1,_19),_(1,_2))  _C53       1.000000000000e+00
    edgepairs_((1,_19),_(1,_2))  _C81       1.000000000000e+00
    edgepairs_((1,_19),_(1,_2))  _C137      1.000000000000e+00
    edgepairs_((1,_19),_(1,_2))  _C641      1.000000000000e+00
    edgepairs_((1,_19),_(1,_2))  _C839      1.000000000000e+00
    edgepairs_((1,_19),_(1,_2))  _C868      1.000000000000e+00
    MARK      'MARKER'                 'INTEND'
    MARK      'MARKER'                 'INTORG'
    edgepairs_((1,_19),_(1,_3))  _C53       1.000000000000e+00
    edgepairs_((1,_19),_(1,_3))  _C82       1.000000000000e+00
    edgepairs_((1,_19),_(1,_3))  _C138      1.000000000000e+00
    edgepairs_((1,_19),_(1,_3))  _C642      1.000000000000e+00
    edgepairs_((1,_19),_(1,_3))  _C839      1.000000000000e+00
    edgepairs_((1,_19),_(1,_3))  _C897      1.000000000000e+00
    MARK      'MARKER'                 'INTEND'
    MARK      'MARKER'                 'INTORG'
    edgepairs_((1,_19),_(11,_12))  _C53       1.000000000000e+00
    edgepairs_((1,_19),_(11,_12))  _C93       1.000000000000e+00
    edgepairs_((1,_19),_(11,_12))  _C149      1.000000000000e+00
    edgepairs_((1,_19),_(11,_12))  _C653      1.000000000000e+00
    edgepairs_((1,_19),_(11,_12))  _C1129     1.000000000000e+00
    edgepairs_((1,_19),_(11,_12))  _C1158     1.000000000000e+00
    MARK      'MARKER'                 'INTEND'
    MARK      'MARKER'                 'INTORG'
    edgepairs_((1,_19),_(11,_18))  _C53       1.000000000000e+00
    edgepairs_((1,_19),_(11,_18))  _C94       1.000000000000e+00
    edgepairs_((1,_19),_(11,_18))  _C150      1.000000000000e+00
    edgepairs_((1,_19),_(11,_18))  _C654      1.000000000000e+00
    edgepairs_((1,_19),_(11,_18))  _C1129     1.000000000000e+00
    edgepairs_((1,_19),_(11,_18))  _C1332     1.000000000000e+00
    MARK      'MARKER'                 'INTEND'
    MARK      'MARKER'                 'INTORG'
    edgepairs_((1,_19),_(11,_23))  _C53       1.000000000000e+00
    edgepairs_((1,_19),_(11,_23))  _C95       1.000000000000e+00
    edgepairs_((1,_19),_(11,_23))  _C151      1.000000000000e+00
    edgepairs_((1,_19),_(11,_23))  _C655      1.000000000000e+00
    edgepairs_((1,_19),_(11,_23))  _C1129     1.000000000000e+00
    edgepairs_((1,_19),_(11,_23))  _C1477     1.000000000000e+00
    MARK      'MARKER'                 'INTEND'
    MARK      'MARKER'                 'INTORG'
    edgepairs_((1,_19),_(12,_13))  _C53       1.000000000000e+00
    edgepairs_((1,_19),_(12,_13))  _C96       1.000000000000e+00
    edgepairs_((1,_19),_(12,_13))  _C152      1.000000000000e+00
    edgepairs_((1,_19),_(12,_13))  _C656      1.000000000000e+00
    edgepairs_((1,_19),_(12,_13))  _C1158     1.000000000000e+00
    edgepairs_((1,_19),_(12,_13))  _C1187     1.000000000000e+00
    MARK      'MARKER'                 'INTEND'
    MARK      'MARKER'                 'INTORG'
    edgepairs_((1,_19),_(13,_14))  _C53       1.000000000000e+00
    edgepairs_((1,_19),_(13,_14))  _C97       1.000000000000e+00
    edgepairs_((1,_19),_(13,_14))  _C153      1.000000000000e+00
    edgepairs_((1,_19),_(13,_14))  _C657      1.000000000000e+00
    edgepairs_((1,_19),_(13,_14))  _C1187     1.000000000000e+00
    edgepairs_((1,_19),_(13,_14))  _C1216     1.000000000000e+00
    MARK      'MARKER'                 'INTEND'
    MARK      'MARKER'                 'INTORG'
    edgepairs_((1,_19),_(14,_15))  _C53       1.000000000000e+00
    edgepairs_((1,_19),_(14,_15))  _C98       1.000000000000e+00
    edgepairs_((1,_19),_(14,_15))  _C154      1.000000000000e+00
    edgepairs_((1,_19),_(14,_15))  _C658      1.000000000000e+00
    edgepairs_((1,_19),_(14,_15))  _C1216     1.000000000000e+00
    edgepairs_((1,_19),_(14,_15))  _C1245     1.000000000000e+00
    MARK      'MARKER'                 'INTEND'
    MARK      'MARKER'                 'INTORG'
    edgepairs_((1,_19),_(15,_16))  _C53       1.000000000000e+00
    edgepairs_((1,_19),_(15,_16))  _C99       1.000000000000e+00
    edgepairs_((1,_19),_(15,_16))  _C155      1.000000000000e+00
    edgepairs_((1,_19),_(15,_16))  _C659      1.000000000000e+00
    edgepairs_((1,_19),_(15,_16))  _C1245     1.000000000000e+00
    edgepairs_((1,_19),_(15,_16))  _C1274     1.000000000000e+00
    MARK      'MARKER'                 'INTEND'
    MARK      'MARKER'                 'INTORG'
    edgepairs_((1,_19),_(15,_17))  _C53       1.000000000000e+00
    edgepairs_((1,_19),_(15,_17))  _C100      1.000000000000e+00
    edgepairs_((1,_19),_(15,_17))  _C156      1.000000000000e+00
    edgepairs_((1,_19),_(15,_17))  _C660      1.000000000000e+00
    edgepairs_((1,_19),_(15,_17))  _C1245     1.000000000000e+00
    edgepairs_((1,_19),_(15,_17))  _C1303     1.000000000000e+00
    MARK      'MARKER'                 'INTEND'
    MARK      'MARKER'                 'INTORG'
    edgepairs_((1,_19),_(15,_18))  _C53       1.000000000000e+00
    edgepairs_((1,_19),_(15,_18))  _C101      1.000000000000e+00
    edgepairs_((1,_19),_(15,_18))  _C157      1.000000000000e+00
    edgepairs_((1,_19),_(15,_18))  _C661      1.000000000000e+00
    edgepairs_((1,_19),_(15,_18))  _C1245     1.000000000000e+00
    edgepairs_((1,_19),_(15,_18))  _C1332     1.000000000000e+00
    MARK      'MARKER'                 'INTEND'
    MARK      'MARKER'                 'INTORG'
    edgepairs_((1,_19),_(18,_19))  _C53       1.000000000000e+00
    edgepairs_((1,_19),_(18,_19))  _C102      1.000000000000e+00
    edgepairs_((1,_19),_(18,_19))  _C158      1.000000000000e+00
    edgepairs_((1,_19),_(18,_19))  _C662      1.000000000000e+00
    edgepairs_((1,_19),_(18,_19))  _C1332     1.000000000000e+00
    edgepairs_((1,_19),_(18,_19))  _C1361     1.000000000000e+00
    MARK      'MARKER'                 'INTEND'
    MARK      'MARKER'                 'INTORG'
    edgepairs_((1,_19),_(19,_21))  _C53       1.000000000000e+00
    edgepairs_((1,_19),_(19,_21))  _C104      1.000000000000e+00
    edgepairs_((1,_19),_(19,_21))  _C160      1.000000000000e+00
    edgepairs_((1,_19),_(19,_21))  _C664      1.000000000000e+00
    edgepairs_((1,_19),_(19,_21))  _C1361     1.000000000000e+00
    edgepairs_((1,_19),_(19,_21))  _C1419     1.000000000000e+00
    MARK      'MARKER'                 'INTEND'
    MARK      'MARKER'                 'INTORG'
    edgepairs_((1,_19),_(3,_4))  _C53       1.000000000000e+00
    edgepairs_((1,_19),_(3,_4))  _C83       1.000000000000e+00
    edgepairs_((1,_19),_(3,_4))  _C139      1.000000000000e+00
    edgepairs_((1,_19),_(3,_4))  _C643      1.000000000000e+00
    edgepairs_((1,_19),_(3,_4))  _C897      1.000000000000e+00
    edgepairs_((1,_19),_(3,_4))  _C926      1.000000000000e+00
    edgepairs_((1,_19),_(3,_4))  _C1533     5.000000000000e-01
    edgepairs_((1,_19),_(3,_4))  OBJ        5.000000000000e-01
    MARK      'MARKER'                 'INTEND'
    MARK      'MARKER'                 'INTORG'
    edgepairs_((1,_19),_(3,_9))  _C53       1.000000000000e+00
    edgepairs_((1,_19),_(3,_9))  _C84       1.000000000000e+00
    edgepairs_((1,_19),_(3,_9))  _C140      1.000000000000e+00
    edgepairs_((1,_19),_(3,_9))  _C644      1.000000000000e+00
    edgepairs_((1,_19),_(3,_9))  _C897      1.000000000000e+00
    edgepairs_((1,_19),_(3,_9))  _C1071     1.000000000000e+00
    edgepairs_((1,_19),_(3,_9))  _C1533     5.000000000000e-01
    edgepairs_((1,_19),_(3,_9))  OBJ        5.000000000000e-01
    MARK      'MARKER'                 'INTEND'
    MARK      'MARKER'                 'INTORG'
    edgepairs_((1,_19),_(4,_5))  _C53       1.000000000000e+00
    edgepairs_((1,_19),_(4,_5))  _C85       1.000000000000e+00
    edgepairs_((1,_19),_(4,_5))  _C141      1.000000000000e+00
    edgepairs_((1,_19),_(4,_5))  _C645      1.000000000000e+00
    edgepairs_((1,_19),_(4,_5))  _C926      1.000000000000e+00
    edgepairs_((1,_19),_(4,_5))  _C955      1.000000000000e+00
    edgepairs_((1,_19),_(4,_5))  _C1533     5.000000000000e-01
    edgepairs_((1,_19),_(4,_5))  OBJ        5.000000000000e-01
    MARK      'MARKER'                 'INTEND'
    MARK      'MARKER'                 'INTORG'
    edgepairs_((1,_19),_(5,_21))  _C53       1.000000000000e+00
    edgepairs_((1,_19),_(5,_21))  _C87       1.000000000000e+00
    edgepairs_((1,_19),_(5,_21))  _C143      1.000000000000e+00
    edgepairs_((1,_19),_(5,_21))  _C647      1.000000000000e+00
    edgepairs_((1,_19),_(5,_21))  _C955      1.000000000000e+00
    edgepairs_((1,_19),_(5,_21))  _C1419     1.000000000000e+00
    MARK      'MARKER'                 'INTEND'
    MARK      'MARKER'                 'INTORG'
    edgepairs_((1,_19),_(5,_6))  _C53       1.000000000000e+00
    edgepairs_((1,_19),_(5,_6))  _C86       1.000000000000e+00
    edgepairs_((1,_19),_(5,_6))  _C142      1.000000000000e+00
    edgepairs_((1,_19),_(5,_6))  _C646      1.000000000000e+00
    edgepairs_((1,_19),_(5,_6))  _C955      1.000000000000e+00
    edgepairs_((1,_19),_(5,_6))  _C984      1.000000000000e+00
    edgepairs_((1,_19),_(5,_6))  _C1533     5.000000000000e-01
    edgepairs_((1,_19),_(5,_6))  OBJ        5.000000000000e-01
    MARK      'MARKER'                 'INTEND'
    MARK      'MARKER'                 'INTORG'
    edgepairs_((1,_19),_(6,_11))  _C53       1.000000000000e+00
    edgepairs_((1,_19),_(6,_11))  _C89       1.000000000000e+00
    edgepairs_((1,_19),_(6,_11))  _C145      1.000000000000e+00
    edgepairs_((1,_19),_(6,_11))  _C649      1.000000000000e+00
    edgepairs_((1,_19),_(6,_11))  _C984      1.000000000000e+00
    edgepairs_((1,_19),_(6,_11))  _C1129     1.000000000000e+00
    MARK      'MARKER'                 'INTEND'
    MARK      'MARKER'                 'INTORG'
    edgepairs_((1,_19),_(6,_7))  _C53       1.000000000000e+00
    edgepairs_((1,_19),_(6,_7))  _C88       1.000000000000e+00
    edgepairs_((1,_19),_(6,_7))  _C144      1.000000000000e+00
    edgepairs_((1,_19),_(6,_7))  _C648      1.000000000000e+00
    edgepairs_((1,_19),_(6,_7))  _C984      1.000000000000e+00
    edgepairs_((1,_19),_(6,_7))  _C1013     1.000000000000e+00
    edgepairs_((1,_19),_(6,_7))  _C1533     5.000000000000e-01
    edgepairs_((1,_19),_(6,_7))  OBJ        5.000000000000e-01
    MARK      'MARKER'                 'INTEND'
    MARK      'MARKER'                 'INTORG'
    edgepairs_((1,_19),_(7,_9))  _C53       1.000000000000e+00
    edgepairs_((1,_19),_(7,_9))  _C91       1.000000000000e+00
    edgepairs_((1,_19),_(7,_9))  _C147      1.000000000000e+00
    edgepairs_((1,_19),_(7,_9))  _C651      1.000000000000e+00
    edgepairs_((1,_19),_(7,_9))  _C1013     1.000000000000e+00
    edgepairs_((1,_19),_(7,_9))  _C1071     1.000000000000e+00
    edgepairs_((1,_19),_(7,_9))  _C1533     5.000000000000e-01
    edgepairs_((1,_19),_(7,_9))  OBJ        5.000000000000e-01
    MARK      'MARKER'                 'INTEND'
    MARK      'MARKER'                 'INTORG'
    edgepairs_((1,_19),__1)  _C53       1.000000000000e+00
    edgepairs_((1,_19),__1)  _C1533     1.000000000000e+00
    edgepairs_((1,_19),__1)  OBJ        1.000000000000e+00
    MARK      'MARKER'                 'INTEND'
    MARK      'MARKER'                 'INTORG'
    edgepairs_((1,_2),_(0,_1))  _C52       1.000000000000e+00
    edgepairs_((1,_2),_(0,_1))  _C80       1.000000000000e+00
    edgepairs_((1,_2),_(0,_1))  _C136      1.000000000000e+00
    edgepairs_((1,_2),_(0,_1))  _C164      1.000000000000e+00
    edgepairs_((1,_2),_(0,_1))  _C809      1.000000000000e+00
    edgepairs_((1,_2),_(0,_1))  _C838      1.000000000000e+00
    MARK      'MARKER'                 'INTEND'
    MARK      'MARKER'                 'INTORG'
    edgepairs_((1,_2),_(1,_2))  _C52       1.000000000000e+00
    edgepairs_((1,_2),_(1,_2))  _C81       1.000000000000e+00
    edgepairs_((1,_2),_(1,_2))  _C137      1.000000000000e+00
    edgepairs_((1,_2),_(1,_2))  _C165      1.000000000000e+00
    edgepairs_((1,_2),_(1,_2))  _C838      1.000000000000e+00
    edgepairs_((1,_2),_(1,_2))  _C867      1.000000000000e+00
    MARK      'MARKER'                 'INTEND'
    MARK      'MARKER'                 'INTORG'
    edgepairs_((1,_2),_(1,_3))  _C52       1.000000000000e+00
    edgepairs_((1,_2),_(1,_3))  _C82       1.000000000000e+00
    edgepairs_((1,_2),_(1,_3))  _C138      1.000000000000e+00
    edgepairs_((1,_2),_(1,_3))  _C166      1.000000000000e+00
    edgepairs_((1,_2),_(1,_3))  _C838      1.000000000000e+00
    edgepairs_((1,_2),_(1,_3))  _C896      1.000000000000e+00
    MARK      'MARKER'                 'INTEND'
    MARK      'MARKER'                 'INTORG'
    edgepairs_((1,_2),_(11,_12))  _C52       1.000000000000e+00
    edgepairs_((1,_2),_(11,_12))  _C93       1.000000000000e+00
    edgepairs_((1,_2),_(11,_12))  _C149      1.000000000000e+00
    edgepairs_((1,_2),_(11,_12))  _C177      1.000000000000e+00
    edgepairs_((1,_2),_(11,_12))  _C1128     1.000000000000e+00
    edgepairs_((1,_2),_(11,_12))  _C1157     1.000000000000e+00
    MARK      'MARKER'                 'INTEND'
    MARK      'MARKER'                 'INTORG'
    edgepairs_((1,_2),_(11,_18))  _C52       1.000000000000e+00
    edgepairs_((1,_2),_(11,_18))  _C94       1.000000000000e+00
    edgepairs_((1,_2),_(11,_18))  _C150      1.000000000000e+00
    edgepairs_((1,_2),_(11,_18))  _C178      1.000000000000e+00
    edgepairs_((1,_2),_(11,_18))  _C1128     1.000000000000e+00
    edgepairs_((1,_2),_(11,_18))  _C1331     1.000000000000e+00
    MARK      'MARKER'                 'INTEND'
    MARK      'MARKER'                 'INTORG'
    edgepairs_((1,_2),_(11,_23))  _C52       1.000000000000e+00
    edgepairs_((1,_2),_(11,_23))  _C95       1.000000000000e+00
    edgepairs_((1,_2),_(11,_23))  _C151      1.000000000000e+00
    edgepairs_((1,_2),_(11,_23))  _C179      1.000000000000e+00
    edgepairs_((1,_2),_(11,_23))  _C1128     1.000000000000e+00
    edgepairs_((1,_2),_(11,_23))  _C1476     1.000000000000e+00
    MARK      'MARKER'                 'INTEND'
    MARK      'MARKER'                 'INTORG'
    edgepairs_((1,_2),_(12,_13))  _C52       1.000000000000e+00
    edgepairs_((1,_2),_(12,_13))  _C96       1.000000000000e+00
    edgepairs_((1,_2),_(12,_13))  _C152      1.000000000000e+00
    edgepairs_((1,_2),_(12,_13))  _C180      1.000000000000e+00
    edgepairs_((1,_2),_(12,_13))  _C1157     1.000000000000e+00
    edgepairs_((1,_2),_(12,_13))  _C1186     1.000000000000e+00
    MARK      'MARKER'                 'INTEND'
    MARK      'MARKER'                 'INTORG'
    edgepairs_((1,_2),_(13,_14))  _C52       1.000000000000e+00
    edgepairs_((1,_2),_(13,_14))  _C97       1.000000000000e+00
    edgepairs_((1,_2),_(13,_14))  _C153      1.000000000000e+00
    edgepairs_((1,_2),_(13,_14))  _C181      1.000000000000e+00
    edgepairs_((1,_2),_(13,_14))  _C1186     1.000000000000e+00
    edgepairs_((1,_2),_(13,_14))  _C1215     1.000000000000e+00
    MARK      'MARKER'                 'INTEND'
    MARK      'MARKER'                 'INTORG'
    edgepairs_((1,_2),_(14,_15))  _C52       1.000000000000e+00
    edgepairs_((1,_2),_(14,_15))  _C98       1.000000000000e+00
    edgepairs_((1,_2),_(14,_15))  _C154      1.000000000000e+00
    edgepairs_((1,_2),_(14,_15))  _C182      1.000000000000e+00
    edgepairs_((1,_2),_(14,_15))  _C1215     1.000000000000e+00
    edgepairs_((1,_2),_(14,_15))  _C1244     1.000000000000e+00
    MARK      'MARKER'                 'INTEND'
    MARK      'MARKER'                 'INTORG'
    edgepairs_((1,_2),_(15,_16))  _C52       1.000000000000e+00
    edgepairs_((1,_2),_(15,_16))  _C99       1.000000000000e+00
    edgepairs_((1,_2),_(15,_16))  _C155      1.000000000000e+00
    edgepairs_((1,_2),_(15,_16))  _C183      1.000000000000e+00
    edgepairs_((1,_2),_(15,_16))  _C1244     1.000000000000e+00
    edgepairs_((1,_2),_(15,_16))  _C1273     1.000000000000e+00
    MARK      'MARKER'                 'INTEND'
    MARK      'MARKER'                 'INTORG'
    edgepairs_((1,_2),_(15,_17))  _C52       1.000000000000e+00
    edgepairs_((1,_2),_(15,_17))  _C100      1.000000000000e+00
    edgepairs_((1,_2),_(15,_17))  _C156      1.000000000000e+00
    edgepairs_((1,_2),_(15,_17))  _C184      1.000000000000e+00
    edgepairs_((1,_2),_(15,_17))  _C1244     1.000000000000e+00
    edgepairs_((1,_2),_(15,_17))  _C1302     1.000000000000e+00
    MARK      'MARKER'                 'INTEND'
    MARK      'MARKER'                 'INTORG'
    edgepairs_((1,_2),_(15,_18))  _C52       1.000000000000e+00
    edgepairs_((1,_2),_(15,_18))  _C101      1.000000000000e+00
    edgepairs_((1,_2),_(15,_18))  _C157      1.000000000000e+00
    edgepairs_((1,_2),_(15,_18))  _C185      1.000000000000e+00
    edgepairs_((1,_2),_(15,_18))  _C1244     1.000000000000e+00
    edgepairs_((1,_2),_(15,_18))  _C1331     1.000000000000e+00
    MARK      'MARKER'                 'INTEND'
    MARK      'MARKER'                 'INTORG'
    edgepairs_((1,_2),_(18,_19))  _C52       1.000000000000e+00
    edgepairs_((1,_2),_(18,_19))  _C102      1.000000000000e+00
    edgepairs_((1,_2),_(18,_19))  _C158      1.000000000000e+00
    edgepairs_((1,_2),_(18,_19))  _C186      1.000000000000e+00
    edgepairs_((1,_2),_(18,_19))  _C1331     1.000000000000e+00
    edgepairs_((1,_2),_(18,_19))  _C1360     1.000000000000e+00
    MARK      'MARKER'                 'INTEND'
    MARK      'MARKER'                 'INTORG'
    edgepairs_((1,_2),_(19,_21))  _C52       1.000000000000e+00
    edgepairs_((1,_2),_(19,_21))  _C104      1.000000000000e+00
    edgepairs_((1,_2),_(19,_21))  _C160      1.000000000000e+00
    edgepairs_((1,_2),_(19,_21))  _C188      1.000000000000e+00
    edgepairs_((1,_2),_(19,_21))  _C1360     1.000000000000e+00
    edgepairs_((1,_2),_(19,_21))  _C1418     1.000000000000e+00
    MARK      'MARKER'                 'INTEND'
    MARK      'MARKER'                 'INTORG'
    edgepairs_((1,_2),_(3,_4))  _C52       1.000000000000e+00
    edgepairs_((1,_2),_(3,_4))  _C83       1.000000000000e+00
    edgepairs_((1,_2),_(3,_4))  _C139      1.000000000000e+00
    edgepairs_((1,_2),_(3,_4))  _C167      1.000000000000e+00
    edgepairs_((1,_2),_(3,_4))  _C896      1.000000000000e+00
    edgepairs_((1,_2),_(3,_4))  _C925      1.000000000000e+00
    edgepairs_((1,_2),_(3,_4))  _C1533     5.000000000000e-01
    edgepairs_((1,_2),_(3,_4))  OBJ        5.000000000000e-01
    MARK      'MARKER'                 'INTEND'
    MARK      'MARKER'                 'INTORG'
    edgepairs_((1,_2),_(3,_9))  _C52       1.000000000000e+00
    edgepairs_((1,_2),_(3,_9))  _C84       1.000000000000e+00
    edgepairs_((1,_2),_(3,_9))  _C140      1.000000000000e+00
    edgepairs_((1,_2),_(3,_9))  _C168      1.000000000000e+00
    edgepairs_((1,_2),_(3,_9))  _C896      1.000000000000e+00
    edgepairs_((1,_2),_(3,_9))  _C1070     1.000000000000e+00
    edgepairs_((1,_2),_(3,_9))  _C1533     5.000000000000e-01
    edgepairs_((1,_2),_(3,_9))  OBJ        5.000000000000e-01
    MARK      'MARKER'                 'INTEND'
    MARK      'MARKER'                 'INTORG'
    edgepairs_((1,_2),_(4,_5))  _C52       1.000000000000e+00
    edgepairs_((1,_2),_(4,_5))  _C85       1.000000000000e+00
    edgepairs_((1,_2),_(4,_5))  _C141      1.000000000000e+00
    edgepairs_((1,_2),_(4,_5))  _C169      1.000000000000e+00
    edgepairs_((1,_2),_(4,_5))  _C925      1.000000000000e+00
    edgepairs_((1,_2),_(4,_5))  _C954      1.000000000000e+00
    edgepairs_((1,_2),_(4,_5))  _C1533     5.000000000000e-01
    edgepairs_((1,_2),_(4,_5))  OBJ        5.000000000000e-01
    MARK      'MARKER'                 'INTEND'
    MARK      'MARKER'                 'INTORG'
    edgepairs_((1,_2),_(5,_21))  _C52       1.000000000000e+00
    edgepairs_((1,_2),_(5,_21))  _C87       1.000000000000e+00
    edgepairs_((1,_2),_(5,_21))  _C143      1.000000000000e+00
    edgepairs_((1,_2),_(5,_21))  _C171      1.000000000000e+00
    edgepairs_((1,_2),_(5,_21))  _C954      1.000000000000e+00
    edgepairs_((1,_2),_(5,_21))  _C1418     1.000000000000e+00
    MARK      'MARKER'                 'INTEND'
    MARK      'MARKER'                 'INTORG'
    edgepairs_((1,_2),_(5,_6))  _C52       1.000000000000e+00
    edgepairs_((1,_2),_(5,_6))  _C86       1.000000000000e+00
    edgepairs_((1,_2),_(5,_6))  _C142      1.000000000000e+00
    edgepairs_((1,_2),_(5,_6))  _C170      1.000000000000e+00
    edgepairs_((1,_2),_(5,_6))  _C954      1.000000000000e+00
    edgepairs_((1,_2),_(5,_6))  _C983      1.000000000000e+00
    edgepairs_((1,_2),_(5,_6))  _C1533     5.000000000000e-01
    edgepairs_((1,_2),_(5,_6))  OBJ        5.000000000000e-01
    MARK      'MARKER'                 'INTEND'
    MARK      'MARKER'                 'INTORG'
    edgepairs_((1,_2),_(6,_11))  _C52       1.000000000000e+00
    edgepairs_((1,_2),_(6,_11))  _C89       1.000000000000e+00
    edgepairs_((1,_2),_(6,_11))  _C145      1.000000000000e+00
    edgepairs_((1,_2),_(6,_11))  _C173      1.000000000000e+00
    edgepairs_((1,_2),_(6,_11))  _C983      1.000000000000e+00
    edgepairs_((1,_2),_(6,_11))  _C1128     1.000000000000e+00
    MARK      'MARKER'                 'INTEND'
    MARK      'MARKER'                 'INTORG'
    edgepairs_((1,_2),_(6,_7))  _C52       1.000000000000e+00
    edgepairs_((1,_2),_(6,_7))  _C88       1.000000000000e+00
    edgepairs_((1,_2),_(6,_7))  _C144      1.000000000000e+00
    edgepairs_((1,_2),_(6,_7))  _C172      1.000000000000e+00
    edgepairs_((1,_2),_(6,_7))  _C983      1.000000000000e+00
    edgepairs_((1,_2),_(6,_7))  _C1012     1.000000000000e+00
    edgepairs_((1,_2),_(6,_7))  _C1533     5.000000000000e-01
    edgepairs_((1,_2),_(6,_7))  OBJ        5.000000000000e-01
    MARK      'MARKER'                 'INTEND'
    MARK      'MARKER'                 'INTORG'
    edgepairs_((1,_2),_(7,_9))  _C52       1.000000000000e+00
    edgepairs_((1,_2),_(7,_9))  _C91       1.000000000000e+00
    edgepairs_((1,_2),_(7,_9))  _C147      1.000000000000e+00
    edgepairs_((1,_2),_(7,_9))  _C175      1.000000000000e+00
    edgepairs_((1,_2),_(7,_9))  _C1012     1.000000000000e+00
    edgepairs_((1,_2),_(7,_9))  _C1070     1.000000000000e+00
    edgepairs_((1,_2),_(7,_9))  _C1533     5.000000000000e-01
    edgepairs_((1,_2),_(7,_9))  OBJ        5.000000000000e-01
    MARK      'MARKER'                 'INTEND'
    MARK      'MARKER'                 'INTORG'
    edgepairs_((1,_2),__1)  _C52       1.000000000000e+00
    edgepairs_((1,_2),__1)  _C1533     1.000000000000e+00
    edgepairs_((1,_2),__1)  OBJ        1.000000000000e+00
    MARK      'MARKER'                 'INTEND'
    MARK      'MARKER'                 'INTORG'
    edgepairs_((1,_23),_(0,_1))  _C54       1.000000000000e+00
    edgepairs_((1,_23),_(0,_1))  _C80       1.000000000000e+00
    edgepairs_((1,_23),_(0,_1))  _C136      1.000000000000e+00
    edgepairs_((1,_23),_(0,_1))  _C752      1.000000000000e+00
    edgepairs_((1,_23),_(0,_1))  _C811      1.000000000000e+00
    edgepairs_((1,_23),_(0,_1))  _C840      1.000000000000e+00
    MARK      'MARKER'                 'INTEND'
    MARK      'MARKER'                 'INTORG'
    edgepairs_((1,_23),_(1,_2))  _C54       1.000000000000e+00
    edgepairs_((1,_23),_(1,_2))  _C81       1.000000000000e+00
    edgepairs_((1,_23),_(1,_2))  _C137      1.000000000000e+00
    edgepairs_((1,_23),_(1,_2))  _C753      1.000000000000e+00
    edgepairs_((1,_23),_(1,_2))  _C840      1.000000000000e+00
    edgepairs_((1,_23),_(1,_2))  _C869      1.000000000000e+00
    MARK      'MARKER'                 'INTEND'
    MARK      'MARKER'                 'INTORG'
    edgepairs_((1,_23),_(1,_3))  _C54       1.000000000000e+00
    edgepairs_((1,_23),_(1,_3))  _C82       1.000000000000e+00
    edgepairs_((1,_23),_(1,_3))  _C138      1.000000000000e+00
    edgepairs_((1,_23),_(1,_3))  _C754      1.000000000000e+00
    edgepairs_((1,_23),_(1,_3))  _C840      1.000000000000e+00
    edgepairs_((1,_23),_(1,_3))  _C898      1.000000000000e+00
    MARK      'MARKER'                 'INTEND'
    MARK      'MARKER'                 'INTORG'
    edgepairs_((1,_23),_(11,_12))  _C54       1.000000000000e+00
    edgepairs_((1,_23),_(11,_12))  _C93       1.000000000000e+00
    edgepairs_((1,_23),_(11,_12))  _C149      1.000000000000e+00
    edgepairs_((1,_23),_(11,_12))  _C765      1.000000000000e+00
    edgepairs_((1,_23),_(11,_12))  _C1130     1.000000000000e+00
    edgepairs_((1,_23),_(11,_12))  _C1159     1.000000000000e+00
    MARK      'MARKER'                 'INTEND'
    MARK      'MARKER'                 'INTORG'
    edgepairs_((1,_23),_(11,_18))  _C54       1.000000000000e+00
    edgepairs_((1,_23),_(11,_18))  _C94       1.000000000000e+00
    edgepairs_((1,_23),_(11,_18))  _C150      1.000000000000e+00
    edgepairs_((1,_23),_(11,_18))  _C766      1.000000000000e+00
    edgepairs_((1,_23),_(11,_18))  _C1130     1.000000000000e+00
    edgepairs_((1,_23),_(11,_18))  _C1333     1.000000000000e+00
    MARK      'MARKER'                 'INTEND'
    MARK      'MARKER'                 'INTORG'
    edgepairs_((1,_23),_(11,_23))  _C54       1.000000000000e+00
    edgepairs_((1,_23),_(11,_23))  _C95       1.000000000000e+00
    edgepairs_((1,_23),_(11,_23))  _C151      1.000000000000e+00
    edgepairs_((1,_23),_(11,_23))  _C767      1.000000000000e+00
    edgepairs_((1,_23),_(11,_23))  _C1130     1.000000000000e+00
    edgepairs_((1,_23),_(11,_23))  _C1478     1.000000000000e+00
    MARK      'MARKER'                 'INTEND'
    MARK      'MARKER'                 'INTORG'
    edgepairs_((1,_23),_(12,_13))  _C54       1.000000000000e+00
    edgepairs_((1,_23),_(12,_13))  _C96       1.000000000000e+00
    edgepairs_((1,_23),_(12,_13))  _C152      1.000000000000e+00
    edgepairs_((1,_23),_(12,_13))  _C768      1.000000000000e+00
    edgepairs_((1,_23),_(12,_13))  _C1159     1.000000000000e+00
    edgepairs_((1,_23),_(12,_13))  _C1188     1.000000000000e+00
    MARK      'MARKER'                 'INTEND'
    MARK      'MARKER'                 'INTORG'
    edgepairs_((1,_23),_(13,_14))  _C54       1.000000000000e+00
    edgepairs_((1,_23),_(13,_14))  _C97       1.000000000000e+00
    edgepairs_((1,_23),_(13,_14))  _C153      1.000000000000e+00
    edgepairs_((1,_23),_(13,_14))  _C769      1.000000000000e+00
    edgepairs_((1,_23),_(13,_14))  _C1188     1.000000000000e+00
    edgepairs_((1,_23),_(13,_14))  _C1217     1.000000000000e+00
    MARK      'MARKER'                 'INTEND'
    MARK      'MARKER'                 'INTORG'
    edgepairs_((1,_23),_(14,_15))  _C54       1.000000000000e+00
    edgepairs_((1,_23),_(14,_15))  _C98       1.000000000000e+00
    edgepairs_((1,_23),_(14,_15))  _C154      1.000000000000e+00
    edgepairs_((1,_23),_(14,_15))  _C770      1.000000000000e+00
    edgepairs_((1,_23),_(14,_15))  _C1217     1.000000000000e+00
    edgepairs_((1,_23),_(14,_15))  _C1246     1.000000000000e+00
    MARK      'MARKER'                 'INTEND'
    MARK      'MARKER'                 'INTORG'
    edgepairs_((1,_23),_(15,_16))  _C54       1.000000000000e+00
    edgepairs_((1,_23),_(15,_16))  _C99       1.000000000000e+00
    edgepairs_((1,_23),_(15,_16))  _C155      1.000000000000e+00
    edgepairs_((1,_23),_(15,_16))  _C771      1.000000000000e+00
    edgepairs_((1,_23),_(15,_16))  _C1246     1.000000000000e+00
    edgepairs_((1,_23),_(15,_16))  _C1275     1.000000000000e+00
    MARK      'MARKER'                 'INTEND'
    MARK      'MARKER'                 'INTORG'
    edgepairs_((1,_23),_(15,_17))  _C54       1.000000000000e+00
    edgepairs_((1,_23),_(15,_17))  _C100      1.000000000000e+00
    edgepairs_((1,_23),_(15,_17))  _C156      1.000000000000e+00
    edgepairs_((1,_23),_(15,_17))  _C772      1.000000000000e+00
    edgepairs_((1,_23),_(15,_17))  _C1246     1.000000000000e+00
    edgepairs_((1,_23),_(15,_17))  _C1304     1.000000000000e+00
    MARK      'MARKER'                 'INTEND'
    MARK      'MARKER'                 'INTORG'
    edgepairs_((1,_23),_(15,_18))  _C54       1.000000000000e+00
    edgepairs_((1,_23),_(15,_18))  _C101      1.000000000000e+00
    edgepairs_((1,_23),_(15,_18))  _C157      1.000000000000e+00
    edgepairs_((1,_23),_(15,_18))  _C773      1.000000000000e+00
    edgepairs_((1,_23),_(15,_18))  _C1246     1.000000000000e+00
    edgepairs_((1,_23),_(15,_18))  _C1333     1.000000000000e+00
    MARK      'MARKER'                 'INTEND'
    MARK      'MARKER'                 'INTORG'
    edgepairs_((1,_23),_(18,_19))  _C54       1.000000000000e+00
    edgepairs_((1,_23),_(18,_19))  _C102      1.000000000000e+00
    edgepairs_((1,_23),_(18,_19))  _C158      1.000000000000e+00
    edgepairs_((1,_23),_(18,_19))  _C774      1.000000000000e+00
    edgepairs_((1,_23),_(18,_19))  _C1333     1.000000000000e+00
    edgepairs_((1,_23),_(18,_19))  _C1362     1.000000000000e+00
    MARK      'MARKER'                 'INTEND'
    MARK      'MARKER'                 'INTORG'
    edgepairs_((1,_23),_(19,_21))  _C54       1.000000000000e+00
    edgepairs_((1,_23),_(19,_21))  _C104      1.000000000000e+00
    edgepairs_((1,_23),_(19,_21))  _C160      1.000000000000e+00
    edgepairs_((1,_23),_(19,_21))  _C776      1.000000000000e+00
    edgepairs_((1,_23),_(19,_21))  _C1362     1.000000000000e+00
    edgepairs_((1,_23),_(19,_21))  _C1420     1.000000000000e+00
    MARK      'MARKER'                 'INTEND'
    MARK      'MARKER'                 'INTORG'
    edgepairs_((1,_23),_(3,_4))  _C54       1.000000000000e+00
    edgepairs_((1,_23),_(3,_4))  _C83       1.000000000000e+00
    edgepairs_((1,_23),_(3,_4))  _C139      1.000000000000e+00
    edgepairs_((1,_23),_(3,_4))  _C755      1.000000000000e+00
    edgepairs_((1,_23),_(3,_4))  _C898      1.000000000000e+00
    edgepairs_((1,_23),_(3,_4))  _C927      1.000000000000e+00
    edgepairs_((1,_23),_(3,_4))  _C1533     5.000000000000e-01
    edgepairs_((1,_23),_(3,_4))  OBJ        5.000000000000e-01
    MARK      'MARKER'                 'INTEND'
    MARK      'MARKER'                 'INTORG'
    edgepairs_((1,_23),_(3,_9))  _C54       1.000000000000e+00
    edgepairs_((1,_23),_(3,_9))  _C84       1.000000000000e+00
    edgepairs_((1,_23),_(3,_9))  _C140      1.000000000000e+00
    edgepairs_((1,_23),_(3,_9))  _C756      1.000000000000e+00
    edgepairs_((1,_23),_(3,_9))  _C898      1.000000000000e+00
    edgepairs_((1,_23),_(3,_9))  _C1072     1.000000000000e+00
    edgepairs_((1,_23),_(3,_9))  _C1533     5.000000000000e-01
    edgepairs_((1,_23),_(3,_9))  OBJ        5.000000000000e-01
    MARK      'MARKER'                 'INTEND'
    MARK      'MARKER'                 'INTORG'
    edgepairs_((1,_23),_(4,_5))  _C54       1.000000000000e+00
    edgepairs_((1,_23),_(4,_5))  _C85       1.000000000000e+00
    edgepairs_((1,_23),_(4,_5))  _C141      1.000000000000e+00
    edgepairs_((1,_23),_(4,_5))  _C757      1.000000000000e+00
    edgepairs_((1,_23),_(4,_5))  _C927      1.000000000000e+00
    edgepairs_((1,_23),_(4,_5))  _C956      1.000000000000e+00
    edgepairs_((1,_23),_(4,_5))  _C1533     5.000000000000e-01
    edgepairs_((1,_23),_(4,_5))  OBJ        5.000000000000e-01
    MARK      'MARKER'                 'INTEND'
    MARK      'MARKER'                 'INTORG'
    edgepairs_((1,_23),_(5,_21))  _C54       1.000000000000e+00
    edgepairs_((1,_23),_(5,_21))  _C87       1.000000000000e+00
    edgepairs_((1,_23),_(5,_21))  _C143      1.000000000000e+00
    edgepairs_((1,_23),_(5,_21))  _C759      1.000000000000e+00
    edgepairs_((1,_23),_(5,_21))  _C956      1.000000000000e+00
    edgepairs_((1,_23),_(5,_21))  _C1420     1.000000000000e+00
    MARK      'MARKER'                 'INTEND'
    MARK      'MARKER'                 'INTORG'
    edgepairs_((1,_23),_(5,_6))  _C54       1.000000000000e+00
    edgepairs_((1,_23),_(5,_6))  _C86       1.000000000000e+00
    edgepairs_((1,_23),_(5,_6))  _C142      1.000000000000e+00
    edgepairs_((1,_23),_(5,_6))  _C758      1.000000000000e+00
    edgepairs_((1,_23),_(5,_6))  _C956      1.000000000000e+00
    edgepairs_((1,_23),_(5,_6))  _C985      1.000000000000e+00
    edgepairs_((1,_23),_(5,_6))  _C1533     5.000000000000e-01
    edgepairs_((1,_23),_(5,_6))  OBJ        5.000000000000e-01
    MARK      'MARKER'                 'INTEND'
    MARK      'MARKER'                 'INTORG'
    edgepairs_((1,_23),_(6,_11))  _C54       1.000000000000e+00
    edgepairs_((1,_23),_(6,_11))  _C89       1.000000000000e+00
    edgepairs_((1,_23),_(6,_11))  _C145      1.000000000000e+00
    edgepairs_((1,_23),_(6,_11))  _C761      1.000000000000e+00
    edgepairs_((1,_23),_(6,_11))  _C985      1.000000000000e+00
    edgepairs_((1,_23),_(6,_11))  _C1130     1.000000000000e+00
    MARK      'MARKER'                 'INTEND'
    MARK      'MARKER'                 'INTORG'
    edgepairs_((1,_23),_(6,_7))  _C54       1.000000000000e+00
    edgepairs_((1,_23),_(6,_7))  _C88       1.000000000000e+00
    edgepairs_((1,_23),_(6,_7))  _C144      1.000000000000e+00
    edgepairs_((1,_23),_(6,_7))  _C760      1.000000000000e+00
    edgepairs_((1,_23),_(6,_7))  _C985      1.000000000000e+00
    edgepairs_((1,_23),_(6,_7))  _C1014     1.000000000000e+00
    edgepairs_((1,_23),_(6,_7))  _C1533     5.000000000000e-01
    edgepairs_((1,_23),_(6,_7))  OBJ        5.000000000000e-01
    MARK      'MARKER'                 'INTEND'
    MARK      'MARKER'                 'INTORG'
    edgepairs_((1,_23),_(7,_9))  _C54       1.000000000000e+00
    edgepairs_((1,_23),_(7,_9))  _C91       1.000000000000e+00
    edgepairs_((1,_23),_(7,_9))  _C147      1.000000000000e+00
    edgepairs_((1,_23),_(7,_9))  _C763      1.000000000000e+00
    edgepairs_((1,_23),_(7,_9))  _C1014     1.000000000000e+00
    edgepairs_((1,_23),_(7,_9))  _C1072     1.000000000000e+00
    edgepairs_((1,_23),_(7,_9))  _C1533     5.000000000000e-01
    edgepairs_((1,_23),_(7,_9))  OBJ        5.000000000000e-01
    MARK      'MARKER'                 'INTEND'
    MARK      'MARKER'                 'INTORG'
    edgepairs_((1,_23),__1)  _C54       1.000000000000e+00
    edgepairs_((1,_23),__1)  _C1533     1.000000000000e+00
    edgepairs_((1,_23),__1)  OBJ        1.000000000000e+00
    MARK      'MARKER'                 'INTEND'
    MARK      'MARKER'                 'INTORG'
    edgepairs_((11,_12),_(19,_20))  _C67       1.000000000000e+00
    edgepairs_((11,_12),_(19,_20))  _C103      1.000000000000e+00
    edgepairs_((11,_12),_(19,_20))  _C439      1.000000000000e+00
    edgepairs_((11,_12),_(19,_20))  _C467      1.000000000000e+00
    edgepairs_((11,_12),_(19,_20))  _C1375     1.000000000000e+00
    edgepairs_((11,_12),_(19,_20))  _C1404     1.000000000000e+00
    MARK      'MARKER'                 'INTEND'
    MARK      'MARKER'                 'INTORG'
    edgepairs_((11,_12),_(21,_22))  _C67       1.000000000000e+00
    edgepairs_((11,_12),_(21,_22))  _C105      1.000000000000e+00
    edgepairs_((11,_12),_(21,_22))  _C441      1.000000000000e+00
    edgepairs_((11,_12),_(21,_22))  _C469      1.000000000000e+00
    edgepairs_((11,_12),_(21,_22))  _C1433     1.000000000000e+00
    edgepairs_((11,_12),_(21,_22))  _C1462     1.000000000000e+00
    MARK      'MARKER'                 'INTEND'
    MARK      'MARKER'                 'INTORG'
    edgepairs_((11,_12),_(22,_23))  _C67       1.000000000000e+00
    edgepairs_((11,_12),_(22,_23))  _C106      1.000000000000e+00
    edgepairs_((11,_12),_(22,_23))  _C442      1.000000000000e+00
    edgepairs_((11,_12),_(22,_23))  _C470      1.000000000000e+00
    edgepairs_((11,_12),_(22,_23))  _C1462     1.000000000000e+00
    edgepairs_((11,_12),_(22,_23))  _C1491     1.000000000000e+00
    MARK      'MARKER'                 'INTEND'
    MARK      'MARKER'                 'INTORG'
    edgepairs_((11,_12),_(23,_24))  _C67       1.000000000000e+00
    edgepairs_((11,_12),_(23,_24))  _C107      1.000000000000e+00
    edgepairs_((11,_12),_(23,_24))  _C443      1.000000000000e+00
    edgepairs_((11,_12),_(23,_24))  _C471      1.000000000000e+00
    edgepairs_((11,_12),_(23,_24))  _C1491     1.000000000000e+00
    edgepairs_((11,_12),_(23,_24))  _C1520     1.000000000000e+00
    edgepairs_((11,_12),_(23,_24))  _C1533     1.000000000000e+00
    edgepairs_((11,_12),_(23,_24))  OBJ        1.000000000000e+00
    MARK      'MARKER'                 'INTEND'
    MARK      'MARKER'                 'INTORG'
    edgepairs_((11,_12),_(7,_8))  _C67       1.000000000000e+00
    edgepairs_((11,_12),_(7,_8))  _C90       1.000000000000e+00
    edgepairs_((11,_12),_(7,_8))  _C426      1.000000000000e+00
    edgepairs_((11,_12),_(7,_8))  _C454      1.000000000000e+00
    edgepairs_((11,_12),_(7,_8))  _C1027     1.000000000000e+00
    edgepairs_((11,_12),_(7,_8))  _C1056     1.000000000000e+00
    MARK      'MARKER'                 'INTEND'
    MARK      'MARKER'                 'INTORG'
    edgepairs_((11,_12),_(9,_10))  _C67       1.000000000000e+00
    edgepairs_((11,_12),_(9,_10))  _C92       1.000000000000e+00
    edgepairs_((11,_12),_(9,_10))  _C428      1.000000000000e+00
    edgepairs_((11,_12),_(9,_10))  _C456      1.000000000000e+00
    edgepairs_((11,_12),_(9,_10))  _C1085     1.000000000000e+00
    edgepairs_((11,_12),_(9,_10))  _C1114     1.000000000000e+00
    MARK      'MARKER'                 'INTEND'
    MARK      'MARKER'                 'INTORG'
    edgepairs_((11,_12),__1)  _C67       1.000000000000e+00
    edgepairs_((11,_12),__1)  _C1533     1.000000000000e+00
    edgepairs_((11,_12),__1)  OBJ        1.000000000000e+00
    MARK      'MARKER'                 'INTEND'
    MARK      'MARKER'                 'INTORG'
    edgepairs_((11,_13),_(0,_1))  _C68       1.000000000000e+00
    edgepairs_((11,_13),_(0,_1))  _C80       1.000000000000e+00
    edgepairs_((11,_13),_(0,_1))  _C416      1.000000000000e+00
    edgepairs_((11,_13),_(0,_1))  _C472      1.000000000000e+00
    edgepairs_((11,_13),_(0,_1))  _C825      1.000000000000e+00
    edgepairs_((11,_13),_(0,_1))  _C854      1.000000000000e+00
    MARK      'MARKER'                 'INTEND'
    MARK      'MARKER'                 'INTORG'
    edgepairs_((11,_13),_(1,_2))  _C68       1.000000000000e+00
    edgepairs_((11,_13),_(1,_2))  _C81       1.000000000000e+00
    edgepairs_((11,_13),_(1,_2))  _C417      1.000000000000e+00
    edgepairs_((11,_13),_(1,_2))  _C473      1.000000000000e+00
    edgepairs_((11,_13),_(1,_2))  _C854      1.000000000000e+00
    edgepairs_((11,_13),_(1,_2))  _C883      1.000000000000e+00
    MARK      'MARKER'                 'INTEND'
    MARK      'MARKER'                 'INTORG'
    edgepairs_((11,_13),_(1,_3))  _C68       1.000000000000e+00
    edgepairs_((11,_13),_(1,_3))  _C82       1.000000000000e+00
    edgepairs_((11,_13),_(1,_3))  _C418      1.000000000000e+00
    edgepairs_((11,_13),_(1,_3))  _C474      1.000000000000e+00
    edgepairs_((11,_13),_(1,_3))  _C854      1.000000000000e+00
    edgepairs_((11,_13),_(1,_3))  _C912      1.000000000000e+00
    MARK      'MARKER'                 'INTEND'
    MARK      'MARKER'                 'INTORG'
    edgepairs_((11,_13),_(11,_12))  _C68       1.000000000000e+00
    edgepairs_((11,_13),_(11,_12))  _C93       1.000000000000e+00
    edgepairs_((11,_13),_(11,_12))  _C429      1.000000000000e+00
    edgepairs_((11,_13),_(11,_12))  _C485      1.000000000000e+00
    edgepairs_((11,_13),_(11,_12))  _C1144     1.000000000000e+00
    edgepairs_((11,_13),_(11,_12))  _C1173     1.000000000000e+00
    MARK      'MARKER'                 'INTEND'
    MARK      'MARKER'                 'INTORG'
    edgepairs_((11,_13),_(11,_18))  _C68       1.000000000000e+00
    edgepairs_((11,_13),_(11,_18))  _C94       1.000000000000e+00
    edgepairs_((11,_13),_(11,_18))  _C430      1.000000000000e+00
    edgepairs_((11,_13),_(11,_18))  _C486      1.000000000000e+00
    edgepairs_((11,_13),_(11,_18))  _C1144     1.000000000000e+00
    edgepairs_((11,_13),_(11,_18))  _C1347     1.000000000000e+00
    MARK      'MARKER'                 'INTEND'
    MARK      'MARKER'                 'INTORG'
    edgepairs_((11,_13),_(11,_23))  _C68       1.000000000000e+00
    edgepairs_((11,_13),_(11,_23))  _C95       1.000000000000e+00
    edgepairs_((11,_13),_(11,_23))  _C431      1.000000000000e+00
    edgepairs_((11,_13),_(11,_23))  _C487      1.000000000000e+00
    edgepairs_((11,_13),_(11,_23))  _C1144     1.000000000000e+00
    edgepairs_((11,_13),_(11,_23))  _C1492     1.000000000000e+00
    MARK      'MARKER'                 'INTEND'
    MARK      'MARKER'                 'INTORG'
    edgepairs_((11,_13),_(12,_13))  _C68       1.000000000000e+00
    edgepairs_((11,_13),_(12,_13))  _C96       1.000000000000e+00
    edgepairs_((11,_13),_(12,_13))  _C432      1.000000000000e+00
    edgepairs_((11,_13),_(12,_13))  _C488      1.000000000000e+00
    edgepairs_((11,_13),_(12,_13))  _C1173     1.000000000000e+00
    edgepairs_((11,_13),_(12,_13))  _C1202     1.000000000000e+00
    MARK      'MARKER'                 'INTEND'
    MARK      'MARKER'                 'INTORG'
    edgepairs_((11,_13),_(13,_14))  _C68       1.000000000000e+00
    edgepairs_((11,_13),_(13,_14))  _C97       1.000000000000e+00
    edgepairs_((11,_13),_(13,_14))  _C433      1.000000000000e+00
    edgepairs_((11,_13),_(13,_14))  _C489      1.000000000000e+00
    edgepairs_((11,_13),_(13,_14))  _C1202     1.000000000000e+00
    edgepairs_((11,_13),_(13,_14))  _C1231     1.000000000000e+00
    MARK      'MARKER'                 'INTEND'
    MARK      'MARKER'                 'INTORG'
    edgepairs_((11,_13),_(14,_15))  _C68       1.000000000000e+00
    edgepairs_((11,_13),_(14,_15))  _C98       1.000000000000e+00
    edgepairs_((11,_13),_(14,_15))  _C434      1.000000000000e+00
    edgepairs_((11,_13),_(14,_15))  _C490      1.000000000000e+00
    edgepairs_((11,_13),_(14,_15))  _C1231     1.000000000000e+00
    edgepairs_((11,_13),_(14,_15))  _C1260     1.000000000000e+00
    MARK      'MARKER'                 'INTEND'
    MARK      'MARKER'                 'INTORG'
    edgepairs_((11,_13),_(15,_16))  _C68       1.000000000000e+00
    edgepairs_((11,_13),_(15,_16))  _C99       1.000000000000e+00
    edgepairs_((11,_13),_(15,_16))  _C435      1.000000000000e+00
    edgepairs_((11,_13),_(15,_16))  _C491      1.000000000000e+00
    edgepairs_((11,_13),_(15,_16))  _C1260     1.000000000000e+00
    edgepairs_((11,_13),_(15,_16))  _C1289     1.000000000000e+00
    MARK      'MARKER'                 'INTEND'
    MARK      'MARKER'                 'INTORG'
    edgepairs_((11,_13),_(15,_17))  _C68       1.000000000000e+00
    edgepairs_((11,_13),_(15,_17))  _C100      1.000000000000e+00
    edgepairs_((11,_13),_(15,_17))  _C436      1.000000000000e+00
    edgepairs_((11,_13),_(15,_17))  _C492      1.000000000000e+00
    edgepairs_((11,_13),_(15,_17))  _C1260     1.000000000000e+00
    edgepairs_((11,_13),_(15,_17))  _C1318     1.000000000000e+00
    MARK      'MARKER'                 'INTEND'
    MARK      'MARKER'                 'INTORG'
    edgepairs_((11,_13),_(15,_18))  _C68       1.000000000000e+00
    edgepairs_((11,_13),_(15,_18))  _C101      1.000000000000e+00
    edgepairs_((11,_13),_(15,_18))  _C437      1.000000000000e+00
    edgepairs_((11,_13),_(15,_18))  _C493      1.000000000000e+00
    edgepairs_((11,_13),_(15,_18))  _C1260     1.000000000000e+00
    edgepairs_((11,_13),_(15,_18))  _C1347     1.000000000000e+00
    MARK      'MARKER'                 'INTEND'
    MARK      'MARKER'                 'INTORG'
    edgepairs_((11,_13),_(18,_19))  _C68       1.000000000000e+00
    edgepairs_((11,_13),_(18,_19))  _C102      1.000000000000e+00
    edgepairs_((11,_13),_(18,_19))  _C438      1.000000000000e+00
    edgepairs_((11,_13),_(18,_19))  _C494      1.000000000000e+00
    edgepairs_((11,_13),_(18,_19))  _C1347     1.000000000000e+00
    edgepairs_((11,_13),_(18,_19))  _C1376     1.000000000000e+00
    MARK      'MARKER'                 'INTEND'
    MARK      'MARKER'                 'INTORG'
    edgepairs_((11,_13),_(19,_21))  _C68       1.000000000000e+00
    edgepairs_((11,_13),_(19,_21))  _C104      1.000000000000e+00
    edgepairs_((11,_13),_(19,_21))  _C440      1.000000000000e+00
    edgepairs_((11,_13),_(19,_21))  _C496      1.000000000000e+00
    edgepairs_((11,_13),_(19,_21))  _C1376     1.000000000000e+00
    edgepairs_((11,_13),_(19,_21))  _C1434     1.000000000000e+00
    MARK      'MARKER'                 'INTEND'
    MARK      'MARKER'                 'INTORG'
    edgepairs_((11,_13),_(3,_4))  _C68       1.000000000000e+00
    edgepairs_((11,_13),_(3,_4))  _C83       1.000000000000e+00
    edgepairs_((11,_13),_(3,_4))  _C419      1.000000000000e+00
    edgepairs_((11,_13),_(3,_4))  _C475      1.000000000000e+00
    edgepairs_((11,_13),_(3,_4))  _C912      1.000000000000e+00
    edgepairs_((11,_13),_(3,_4))  _C941      1.000000000000e+00
    edgepairs_((11,_13),_(3,_4))  _C1533     5.000000000000e-01
    edgepairs_((11,_13),_(3,_4))  OBJ        5.000000000000e-01
    MARK      'MARKER'                 'INTEND'
    MARK      'MARKER'                 'INTORG'
    edgepairs_((11,_13),_(3,_9))  _C68       1.000000000000e+00
    edgepairs_((11,_13),_(3,_9))  _C84       1.000000000000e+00
    edgepairs_((11,_13),_(3,_9))  _C420      1.000000000000e+00
    edgepairs_((11,_13),_(3,_9))  _C476      1.000000000000e+00
    edgepairs_((11,_13),_(3,_9))  _C912      1.000000000000e+00
    edgepairs_((11,_13),_(3,_9))  _C1086     1.000000000000e+00
    edgepairs_((11,_13),_(3,_9))  _C1533     5.000000000000e-01
    edgepairs_((11,_13),_(3,_9))  OBJ        5.000000000000e-01
    MARK      'MARKER'                 'INTEND'
    MARK      'MARKER'                 'INTORG'
    edgepairs_((11,_13),_(4,_5))  _C68       1.000000000000e+00
    edgepairs_((11,_13),_(4,_5))  _C85       1.000000000000e+00
    edgepairs_((11,_13),_(4,_5))  _C421      1.000000000000e+00
    edgepairs_((11,_13),_(4,_5))  _C477      1.000000000000e+00
    edgepairs_((11,_13),_(4,_5))  _C941      1.000000000000e+00
    edgepairs_((11,_13),_(4,_5))  _C970      1.000000000000e+00
    edgepairs_((11,_13),_(4,_5))  _C1533     5.000000000000e-01
    edgepairs_((11,_13),_(4,_5))  OBJ        5.000000000000e-01
    MARK      'MARKER'                 'INTEND'
    MARK      'MARKER'                 'INTORG'
    edgepairs_((11,_13),_(5,_21))  _C68       1.000000000000e+00
    edgepairs_((11,_13),_(5,_21))  _C87       1.000000000000e+00
    edgepairs_((11,_13),_(5,_21))  _C423      1.000000000000e+00
    edgepairs_((11,_13),_(5,_21))  _C479      1.000000000000e+00
    edgepairs_((11,_13),_(5,_21))  _C970      1.000000000000e+00
    edgepairs_((11,_13),_(5,_21))  _C1434     1.000000000000e+00
    MARK      'MARKER'                 'INTEND'
    MARK      'MARKER'                 'INTORG'
    edgepairs_((11,_13),_(5,_6))  _C68       1.000000000000e+00
    edgepairs_((11,_13),_(5,_6))  _C86       1.000000000000e+00
    edgepairs_((11,_13),_(5,_6))  _C422      1.000000000000e+00
    edgepairs_((11,_13),_(5,_6))  _C478      1.000000000000e+00
    edgepairs_((11,_13),_(5,_6))  _C970      1.000000000000e+00
    edgepairs_((11,_13),_(5,_6))  _C999      1.000000000000e+00
    edgepairs_((11,_13),_(5,_6))  _C1533     5.000000000000e-01
    edgepairs_((11,_13),_(5,_6))  OBJ        5.000000000000e-01
    MARK      'MARKER'                 'INTEND'
    MARK      'MARKER'                 'INTORG'
    edgepairs_((11,_13),_(6,_11))  _C68       1.000000000000e+00
    edgepairs_((11,_13),_(6,_11))  _C89       1.000000000000e+00
    edgepairs_((11,_13),_(6,_11))  _C425      1.000000000000e+00
    edgepairs_((11,_13),_(6,_11))  _C481      1.000000000000e+00
    edgepairs_((11,_13),_(6,_11))  _C999      1.000000000000e+00
    edgepairs_((11,_13),_(6,_11))  _C1144     1.000000000000e+00
    MARK      'MARKER'                 'INTEND'
    MARK      'MARKER'                 'INTORG'
    edgepairs_((11,_13),_(6,_7))  _C68       1.000000000000e+00
    edgepairs_((11,_13),_(6,_7))  _C88       1.000000000000e+00
    edgepairs_((11,_13),_(6,_7))  _C424      1.000000000000e+00
    edgepairs_((11,_13),_(6,_7))  _C480      1.000000000000e+00
    edgepairs_((11,_13),_(6,_7))  _C999      1.000000000000e+00
    edgepairs_((11,_13),_(6,_7))  _C1028     1.000000000000e+00
    edgepairs_((11,_13),_(6,_7))  _C1533     5.000000000000e-01
    edgepairs_((11,_13),_(6,_7))  OBJ        5.000000000000e-01
    MARK      'MARKER'                 'INTEND'
    MARK      'MARKER'                 'INTORG'
    edgepairs_((11,_13),_(7,_9))  _C68       1.000000000000e+00
    edgepairs_((11,_13),_(7,_9))  _C91       1.000000000000e+00
    edgepairs_((11,_13),_(7,_9))  _C427      1.000000000000e+00
    edgepairs_((11,_13),_(7,_9))  _C483      1.000000000000e+00
    edgepairs_((11,_13),_(7,_9))  _C1028     1.000000000000e+00
    edgepairs_((11,_13),_(7,_9))  _C1086     1.000000000000e+00
    edgepairs_((11,_13),_(7,_9))  _C1533     5.000000000000e-01
    edgepairs_((11,_13),_(7,_9))  OBJ        5.000000000000e-01
    MARK      'MARKER'                 'INTEND'
    MARK      'MARKER'                 'INTORG'
    edgepairs_((11,_13),__1)  _C68       1.000000000000e+00
    edgepairs_((11,_13),__1)  _C1533     1.000000000000e+00
    edgepairs_((11,_13),__1)  OBJ        1.000000000000e+00
    MARK      'MARKER'                 'INTEND'
    MARK      'MARKER'                 'INTORG'
    edgepairs_((11,_14),_(0,_1))  _C69       1.000000000000e+00
    edgepairs_((11,_14),_(0,_1))  _C80       1.000000000000e+00
    edgepairs_((11,_14),_(0,_1))  _C416      1.000000000000e+00
    edgepairs_((11,_14),_(0,_1))  _C500      1.000000000000e+00
    edgepairs_((11,_14),_(0,_1))  _C826      1.000000000000e+00
    edgepairs_((11,_14),_(0,_1))  _C855      1.000000000000e+00
    MARK      'MARKER'                 'INTEND'
    MARK      'MARKER'                 'INTORG'
    edgepairs_((11,_14),_(1,_2))  _C69       1.000000000000e+00
    edgepairs_((11,_14),_(1,_2))  _C81       1.000000000000e+00
    edgepairs_((11,_14),_(1,_2))  _C417      1.000000000000e+00
    edgepairs_((11,_14),_(1,_2))  _C501      1.000000000000e+00
    edgepairs_((11,_14),_(1,_2))  _C855      1.000000000000e+00
    edgepairs_((11,_14),_(1,_2))  _C884      1.000000000000e+00
    MARK      'MARKER'                 'INTEND'
    MARK      'MARKER'                 'INTORG'
    edgepairs_((11,_14),_(1,_3))  _C69       1.000000000000e+00
    edgepairs_((11,_14),_(1,_3))  _C82       1.000000000000e+00
    edgepairs_((11,_14),_(1,_3))  _C418      1.000000000000e+00
    edgepairs_((11,_14),_(1,_3))  _C502      1.000000000000e+00
    edgepairs_((11,_14),_(1,_3))  _C855      1.000000000000e+00
    edgepairs_((11,_14),_(1,_3))  _C913      1.000000000000e+00
    MARK      'MARKER'                 'INTEND'
    MARK      'MARKER'                 'INTORG'
    edgepairs_((11,_14),_(11,_12))  _C69       1.000000000000e+00
    edgepairs_((11,_14),_(11,_12))  _C93       1.000000000000e+00
    edgepairs_((11,_14),_(11,_12))  _C429      1.000000000000e+00
    edgepairs_((11,_14),_(11,_12))  _C513      1.000000000000e+00
    edgepairs_((11,_14),_(11,_12))  _C1145     1.000000000000e+00
    edgepairs_((11,_14),_(11,_12))  _C1174     1.000000000000e+00
    MARK      'MARKER'                 'INTEND'
    MARK      'MARKER'                 'INTORG'
    edgepairs_((11,_14),_(11,_18))  _C69       1.000000000000e+00
    edgepairs_((11,_14),_(11,_18))  _C94       1.000000000000e+00
    edgepairs_((11,_14),_(11,_18))  _C430      1.000000000000e+00
    edgepairs_((11,_14),_(11,_18))  _C514      1.000000000000e+00
    edgepairs_((11,_14),_(11,_18))  _C1145     1.000000000000e+00
    edgepairs_((11,_14),_(11,_18))  _C1348     1.000000000000e+00
    MARK      'MARKER'                 'INTEND'
    MARK      'MARKER'                 'INTORG'
    edgepairs_((11,_14),_(11,_23))  _C69       1.000000000000e+00
    edgepairs_((11,_14),_(11,_23))  _C95       1.000000000000e+00
    edgepairs_((11,_14),_(11,_23))  _C431      1.000000000000e+00
    edgepairs_((11,_14),_(11,_23))  _C515      1.000000000000e+00
    edgepairs_((11,_14),_(11,_23))  _C1145     1.000000000000e+00
    edgepairs_((11,_14),_(11,_23))  _C1493     1.000000000000e+00
    MARK      'MARKER'                 'INTEND'
    MARK      'MARKER'                 'INTORG'
    edgepairs_((11,_14),_(12,_13))  _C69       1.000000000000e+00
    edgepairs_((11,_14),_(12,_13))  _C96       1.000000000000e+00
    edgepairs_((11,_14),_(12,_13))  _C432      1.000000000000e+00
    edgepairs_((11,_14),_(12,_13))  _C516      1.000000000000e+00
    edgepairs_((11,_14),_(12,_13))  _C1174     1.000000000000e+00
    edgepairs_((11,_14),_(12,_13))  _C1203     1.000000000000e+00
    MARK      'MARKER'                 'INTEND'
    MARK      'MARKER'                 'INTORG'
    edgepairs_((11,_14),_(13,_14))  _C69       1.000000000000e+00
    edgepairs_((11,_14),_(13,_14))  _C97       1.000000000000e+00
    edgepairs_((11,_14),_(13,_14))  _C433      1.000000000000e+00
    edgepairs_((11,_14),_(13,_14))  _C517      1.000000000000e+00
    edgepairs_((11,_14),_(13,_14))  _C1203     1.000000000000e+00
    edgepairs_((11,_14),_(13,_14))  _C1232     1.000000000000e+00
    MARK      'MARKER'                 'INTEND'
    MARK      'MARKER'                 'INTORG'
    edgepairs_((11,_14),_(14,_15))  _C69       1.000000000000e+00
    edgepairs_((11,_14),_(14,_15))  _C98       1.000000000000e+00
    edgepairs_((11,_14),_(14,_15))  _C434      1.000000000000e+00
    edgepairs_((11,_14),_(14,_15))  _C518      1.000000000000e+00
    edgepairs_((11,_14),_(14,_15))  _C1232     1.000000000000e+00
    edgepairs_((11,_14),_(14,_15))  _C1261     1.000000000000e+00
    MARK      'MARKER'                 'INTEND'
    MARK      'MARKER'                 'INTORG'
    edgepairs_((11,_14),_(15,_16))  _C69       1.000000000000e+00
    edgepairs_((11,_14),_(15,_16))  _C99       1.000000000000e+00
    edgepairs_((11,_14),_(15,_16))  _C435      1.000000000000e+00
    edgepairs_((11,_14),_(15,_16))  _C519      1.000000000000e+00
    edgepairs_((11,_14),_(15,_16))  _C1261     1.000000000000e+00
    edgepairs_((11,_14),_(15,_16))  _C1290     1.000000000000e+00
    MARK      'MARKER'                 'INTEND'
    MARK      'MARKER'                 'INTORG'
    edgepairs_((11,_14),_(15,_17))  _C69       1.000000000000e+00
    edgepairs_((11,_14),_(15,_17))  _C100      1.000000000000e+00
    edgepairs_((11,_14),_(15,_17))  _C436      1.000000000000e+00
    edgepairs_((11,_14),_(15,_17))  _C520      1.000000000000e+00
    edgepairs_((11,_14),_(15,_17))  _C1261     1.000000000000e+00
    edgepairs_((11,_14),_(15,_17))  _C1319     1.000000000000e+00
    MARK      'MARKER'                 'INTEND'
    MARK      'MARKER'                 'INTORG'
    edgepairs_((11,_14),_(15,_18))  _C69       1.000000000000e+00
    edgepairs_((11,_14),_(15,_18))  _C101      1.000000000000e+00
    edgepairs_((11,_14),_(15,_18))  _C437      1.000000000000e+00
    edgepairs_((11,_14),_(15,_18))  _C521      1.000000000000e+00
    edgepairs_((11,_14),_(15,_18))  _C1261     1.000000000000e+00
    edgepairs_((11,_14),_(15,_18))  _C1348     1.000000000000e+00
    MARK      'MARKER'                 'INTEND'
    MARK      'MARKER'                 'INTORG'
    edgepairs_((11,_14),_(18,_19))  _C69       1.000000000000e+00
    edgepairs_((11,_14),_(18,_19))  _C102      1.000000000000e+00
    edgepairs_((11,_14),_(18,_19))  _C438      1.000000000000e+00
    edgepairs_((11,_14),_(18,_19))  _C522      1.000000000000e+00
    edgepairs_((11,_14),_(18,_19))  _C1348     1.000000000000e+00
    edgepairs_((11,_14),_(18,_19))  _C1377     1.000000000000e+00
    MARK      'MARKER'                 'INTEND'
    MARK      'MARKER'                 'INTORG'
    edgepairs_((11,_14),_(19,_21))  _C69       1.000000000000e+00
    edgepairs_((11,_14),_(19,_21))  _C104      1.000000000000e+00
    edgepairs_((11,_14),_(19,_21))  _C440      1.000000000000e+00
    edgepairs_((11,_14),_(19,_21))  _C524      1.000000000000e+00
    edgepairs_((11,_14),_(19,_21))  _C1377     1.000000000000e+00
    edgepairs_((11,_14),_(19,_21))  _C1435     1.000000000000e+00
    MARK      'MARKER'                 'INTEND'
    MARK      'MARKER'                 'INTORG'
    edgepairs_((11,_14),_(3,_4))  _C69       1.000000000000e+00
    edgepairs_((11,_14),_(3,_4))  _C83       1.000000000000e+00
    edgepairs_((11,_14),_(3,_4))  _C419      1.000000000000e+00
    edgepairs_((11,_14),_(3,_4))  _C503      1.000000000000e+00
    edgepairs_((11,_14),_(3,_4))  _C913      1.000000000000e+00
    edgepairs_((11,_14),_(3,_4))  _C942      1.000000000000e+00
    edgepairs_((11,_14),_(3,_4))  _C1533     5.000000000000e-01
    edgepairs_((11,_14),_(3,_4))  OBJ        5.000000000000e-01
    MARK      'MARKER'                 'INTEND'
    MARK      'MARKER'                 'INTORG'
    edgepairs_((11,_14),_(3,_9))  _C69       1.000000000000e+00
    edgepairs_((11,_14),_(3,_9))  _C84       1.000000000000e+00
    edgepairs_((11,_14),_(3,_9))  _C420      1.000000000000e+00
    edgepairs_((11,_14),_(3,_9))  _C504      1.000000000000e+00
    edgepairs_((11,_14),_(3,_9))  _C913      1.000000000000e+00
    edgepairs_((11,_14),_(3,_9))  _C1087     1.000000000000e+00
    edgepairs_((11,_14),_(3,_9))  _C1533     5.000000000000e-01
    edgepairs_((11,_14),_(3,_9))  OBJ        5.000000000000e-01
    MARK      'MARKER'                 'INTEND'
    MARK      'MARKER'                 'INTORG'
    edgepairs_((11,_14),_(4,_5))  _C69       1.000000000000e+00
    edgepairs_((11,_14),_(4,_5))  _C85       1.000000000000e+00
    edgepairs_((11,_14),_(4,_5))  _C421      1.000000000000e+00
    edgepairs_((11,_14),_(4,_5))  _C505      1.000000000000e+00
    edgepairs_((11,_14),_(4,_5))  _C942      1.000000000000e+00
    edgepairs_((11,_14),_(4,_5))  _C971      1.000000000000e+00
    edgepairs_((11,_14),_(4,_5))  _C1533     5.000000000000e-01
    edgepairs_((11,_14),_(4,_5))  OBJ        5.000000000000e-01
    MARK      'MARKER'                 'INTEND'
    MARK      'MARKER'                 'INTORG'
    edgepairs_((11,_14),_(5,_21))  _C69       1.000000000000e+00
    edgepairs_((11,_14),_(5,_21))  _C87       1.000000000000e+00
    edgepairs_((11,_14),_(5,_21))  _C423      1.000000000000e+00
    edgepairs_((11,_14),_(5,_21))  _C507      1.000000000000e+00
    edgepairs_((11,_14),_(5,_21))  _C971      1.000000000000e+00
    edgepairs_((11,_14),_(5,_21))  _C1435     1.000000000000e+00
    MARK      'MARKER'                 'INTEND'
    MARK      'MARKER'                 'INTORG'
    edgepairs_((11,_14),_(5,_6))  _C69       1.000000000000e+00
    edgepairs_((11,_14),_(5,_6))  _C86       1.000000000000e+00
    edgepairs_((11,_14),_(5,_6))  _C422      1.000000000000e+00
    edgepairs_((11,_14),_(5,_6))  _C506      1.000000000000e+00
    edgepairs_((11,_14),_(5,_6))  _C971      1.000000000000e+00
    edgepairs_((11,_14),_(5,_6))  _C1000     1.000000000000e+00
    edgepairs_((11,_14),_(5,_6))  _C1533     5.000000000000e-01
    edgepairs_((11,_14),_(5,_6))  OBJ        5.000000000000e-01
    MARK      'MARKER'                 'INTEND'
    MARK      'MARKER'                 'INTORG'
    edgepairs_((11,_14),_(6,_11))  _C69       1.000000000000e+00
    edgepairs_((11,_14),_(6,_11))  _C89       1.000000000000e+00
    edgepairs_((11,_14),_(6,_11))  _C425      1.000000000000e+00
    edgepairs_((11,_14),_(6,_11))  _C509      1.000000000000e+00
    edgepairs_((11,_14),_(6,_11))  _C1000     1.000000000000e+00
    edgepairs_((11,_14),_(6,_11))  _C1145     1.000000000000e+00
    MARK      'MARKER'                 'INTEND'
    MARK      'MARKER'                 'INTORG'
    edgepairs_((11,_14),_(6,_7))  _C69       1.000000000000e+00
    edgepairs_((11,_14),_(6,_7))  _C88       1.000000000000e+00
    edgepairs_((11,_14),_(6,_7))  _C424      1.000000000000e+00
    edgepairs_((11,_14),_(6,_7))  _C508      1.000000000000e+00
    edgepairs_((11,_14),_(6,_7))  _C1000     1.000000000000e+00
    edgepairs_((11,_14),_(6,_7))  _C1029     1.000000000000e+00
    edgepairs_((11,_14),_(6,_7))  _C1533     5.000000000000e-01
    edgepairs_((11,_14),_(6,_7))  OBJ        5.000000000000e-01
    MARK      'MARKER'                 'INTEND'
    MARK      'MARKER'                 'INTORG'
    edgepairs_((11,_14),_(7,_9))  _C69       1.000000000000e+00
    edgepairs_((11,_14),_(7,_9))  _C91       1.000000000000e+00
    edgepairs_((11,_14),_(7,_9))  _C427      1.000000000000e+00
    edgepairs_((11,_14),_(7,_9))  _C511      1.000000000000e+00
    edgepairs_((11,_14),_(7,_9))  _C1029     1.000000000000e+00
    edgepairs_((11,_14),_(7,_9))  _C1087     1.000000000000e+00
    edgepairs_((11,_14),_(7,_9))  _C1533     5.000000000000e-01
    edgepairs_((11,_14),_(7,_9))  OBJ        5.000000000000e-01
    MARK      'MARKER'                 'INTEND'
    MARK      'MARKER'                 'INTORG'
    edgepairs_((11,_14),__1)  _C69       1.000000000000e+00
    edgepairs_((11,_14),__1)  _C1533     1.000000000000e+00
    edgepairs_((11,_14),__1)  OBJ        1.000000000000e+00
    MARK      'MARKER'                 'INTEND'
    MARK      'MARKER'                 'INTORG'
    edgepairs_((14,_15),_(0,_1))  _C70       1.000000000000e+00
    edgepairs_((14,_15),_(0,_1))  _C80       1.000000000000e+00
    edgepairs_((14,_15),_(0,_1))  _C500      1.000000000000e+00
    edgepairs_((14,_15),_(0,_1))  _C528      1.000000000000e+00
    edgepairs_((14,_15),_(0,_1))  _C827      1.000000000000e+00
    edgepairs_((14,_15),_(0,_1))  _C856      1.000000000000e+00
    MARK      'MARKER'                 'INTEND'
    MARK      'MARKER'                 'INTORG'
    edgepairs_((14,_15),_(1,_2))  _C70       1.000000000000e+00
    edgepairs_((14,_15),_(1,_2))  _C81       1.000000000000e+00
    edgepairs_((14,_15),_(1,_2))  _C501      1.000000000000e+00
    edgepairs_((14,_15),_(1,_2))  _C529      1.000000000000e+00
    edgepairs_((14,_15),_(1,_2))  _C856      1.000000000000e+00
    edgepairs_((14,_15),_(1,_2))  _C885      1.000000000000e+00
    MARK      'MARKER'                 'INTEND'
    MARK      'MARKER'                 'INTORG'
    edgepairs_((14,_15),_(1,_3))  _C70       1.000000000000e+00
    edgepairs_((14,_15),_(1,_3))  _C82       1.000000000000e+00
    edgepairs_((14,_15),_(1,_3))  _C502      1.000000000000e+00
    edgepairs_((14,_15),_(1,_3))  _C530      1.000000000000e+00
    edgepairs_((14,_15),_(1,_3))  _C856      1.000000000000e+00
    edgepairs_((14,_15),_(1,_3))  _C914      1.000000000000e+00
    MARK      'MARKER'                 'INTEND'
    MARK      'MARKER'                 'INTORG'
    edgepairs_((14,_15),_(11,_12))  _C70       1.000000000000e+00
    edgepairs_((14,_15),_(11,_12))  _C93       1.000000000000e+00
    edgepairs_((14,_15),_(11,_12))  _C513      1.000000000000e+00
    edgepairs_((14,_15),_(11,_12))  _C541      1.000000000000e+00
    edgepairs_((14,_15),_(11,_12))  _C1146     1.000000000000e+00
    edgepairs_((14,_15),_(11,_12))  _C1175     1.000000000000e+00
    MARK      'MARKER'                 'INTEND'
    MARK      'MARKER'                 'INTORG'
    edgepairs_((14,_15),_(11,_18))  _C70       1.000000000000e+00
    edgepairs_((14,_15),_(11,_18))  _C94       1.000000000000e+00
    edgepairs_((14,_15),_(11,_18))  _C514      1.000000000000e+00
    edgepairs_((14,_15),_(11,_18))  _C542      1.000000000000e+00
    edgepairs_((14,_15),_(11,_18))  _C1146     1.000000000000e+00
    edgepairs_((14,_15),_(11,_18))  _C1349     1.000000000000e+00
    MARK      'MARKER'                 'INTEND'
    MARK      'MARKER'                 'INTORG'
    edgepairs_((14,_15),_(11,_23))  _C70       1.000000000000e+00
    edgepairs_((14,_15),_(11,_23))  _C95       1.000000000000e+00
    edgepairs_((14,_15),_(11,_23))  _C515      1.000000000000e+00
    edgepairs_((14,_15),_(11,_23))  _C543      1.000000000000e+00
    edgepairs_((14,_15),_(11,_23))  _C1146     1.000000000000e+00
    edgepairs_((14,_15),_(11,_23))  _C1494     1.000000000000e+00
    MARK      'MARKER'                 'INTEND'
    MARK      'MARKER'                 'INTORG'
    edgepairs_((14,_15),_(12,_13))  _C70       1.000000000000e+00
    edgepairs_((14,_15),_(12,_13))  _C96       1.000000000000e+00
    edgepairs_((14,_15),_(12,_13))  _C516      1.000000000000e+00
    edgepairs_((14,_15),_(12,_13))  _C544      1.000000000000e+00
    edgepairs_((14,_15),_(12,_13))  _C1175     1.000000000000e+00
    edgepairs_((14,_15),_(12,_13))  _C1204     1.000000000000e+00
    MARK      'MARKER'                 'INTEND'
    MARK      'MARKER'                 'INTORG'
    edgepairs_((14,_15),_(13,_14))  _C70       1.000000000000e+00
    edgepairs_((14,_15),_(13,_14))  _C97       1.000000000000e+00
    edgepairs_((14,_15),_(13,_14))  _C517      1.000000000000e+00
    edgepairs_((14,_15),_(13,_14))  _C545      1.000000000000e+00
    edgepairs_((14,_15),_(13,_14))  _C1204     1.000000000000e+00
    edgepairs_((14,_15),_(13,_14))  _C1233     1.000000000000e+00
    MARK      'MARKER'                 'INTEND'
    MARK      'MARKER'                 'INTORG'
    edgepairs_((14,_15),_(14,_15))  _C70       1.000000000000e+00
    edgepairs_((14,_15),_(14,_15))  _C98       1.000000000000e+00
    edgepairs_((14,_15),_(14,_15))  _C518      1.000000000000e+00
    edgepairs_((14,_15),_(14,_15))  _C546      1.000000000000e+00
    edgepairs_((14,_15),_(14,_15))  _C1233     1.000000000000e+00
    edgepairs_((14,_15),_(14,_15))  _C1262     1.000000000000e+00
    MARK      'MARKER'                 'INTEND'
    MARK      'MARKER'                 'INTORG'
    edgepairs_((14,_15),_(15,_16))  _C70       1.000000000000e+00
    edgepairs_((14,_15),_(15,_16))  _C99       1.000000000000e+00
    edgepairs_((14,_15),_(15,_16))  _C519      1.000000000000e+00
    edgepairs_((14,_15),_(15,_16))  _C547      1.000000000000e+00
    edgepairs_((14,_15),_(15,_16))  _C1262     1.000000000000e+00
    edgepairs_((14,_15),_(15,_16))  _C1291     1.000000000000e+00
    MARK      'MARKER'                 'INTEND'
    MARK      'MARKER'                 'INTORG'
    edgepairs_((14,_15),_(15,_17))  _C70       1.000000000000e+00
    edgepairs_((14,_15),_(15,_17))  _C100      1.000000000000e+00
    edgepairs_((14,_15),_(15,_17))  _C520      1.000000000000e+00
    edgepairs_((14,_15),_(15,_17))  _C548      1.000000000000e+00
    edgepairs_((14,_15),_(15,_17))  _C1262     1.000000000000e+00
    edgepairs_((14,_15),_(15,_17))  _C1320     1.000000000000e+00
    MARK      'MARKER'                 'INTEND'
    MARK      'MARKER'                 'INTORG'
    edgepairs_((14,_15),_(15,_18))  _C70       1.000000000000e+00
    edgepairs_((14,_15),_(15,_18))  _C101      1.000000000000e+00
    edgepairs_((14,_15),_(15,_18))  _C521      1.000000000000e+00
    edgepairs_((14,_15),_(15,_18))  _C549      1.000000000000e+00
    edgepairs_((14,_15),_(15,_18))  _C1262     1.000000000000e+00
    edgepairs_((14,_15),_(15,_18))  _C1349     1.000000000000e+00
    MARK      'MARKER'                 'INTEND'
    MARK      'MARKER'                 'INTORG'
    edgepairs_((14,_15),_(18,_19))  _C70       1.000000000000e+00
    edgepairs_((14,_15),_(18,_19))  _C102      1.000000000000e+00
    edgepairs_((14,_15),_(18,_19))  _C522      1.000000000000e+00
    edgepairs_((14,_15),_(18,_19))  _C550      1.000000000000e+00
    edgepairs_((14,_15),_(18,_19))  _C1349     1.000000000000e+00
    edgepairs_((14,_15),_(18,_19))  _C1378     1.000000000000e+00
    MARK      'MARKER'                 'INTEND'
    MARK      'MARKER'                 'INTORG'
    edgepairs_((14,_15),_(19,_21))  _C70       1.000000000000e+00
    edgepairs_((14,_15),_(19,_21))  _C104      1.000000000000e+00
    edgepairs_((14,_15),_(19,_21))  _C524      1.000000000000e+00
    edgepairs_((14,_15),_(19,_21))  _C552      1.000000000000e+00
    edgepairs_((14,_15),_(19,_21))  _C1378     1.000000000000e+00
    edgepairs_((14,_15),_(19,_21))  _C1436     1.000000000000e+00
    MARK      'MARKER'                 'INTEND'
    MARK      'MARKER'                 'INTORG'
    edgepairs_((14,_15),_(3,_4))  _C70       1.000000000000e+00
    edgepairs_((14,_15),_(3,_4))  _C83       1.000000000000e+00
    edgepairs_((14,_15),_(3,_4))  _C503      1.000000000000e+00
    edgepairs_((14,_15),_(3,_4))  _C531      1.000000000000e+00
    edgepairs_((14,_15),_(3,_4))  _C914      1.000000000000e+00
    edgepairs_((14,_15),_(3,_4))  _C943      1.000000000000e+00
    edgepairs_((14,_15),_(3,_4))  _C1533     5.000000000000e-01
    edgepairs_((14,_15),_(3,_4))  OBJ        5.000000000000e-01
    MARK      'MARKER'                 'INTEND'
    MARK      'MARKER'                 'INTORG'
    edgepairs_((14,_15),_(3,_9))  _C70       1.000000000000e+00
    edgepairs_((14,_15),_(3,_9))  _C84       1.000000000000e+00
    edgepairs_((14,_15),_(3,_9))  _C504      1.000000000000e+00
    edgepairs_((14,_15),_(3,_9))  _C532      1.000000000000e+00
    edgepairs_((14,_15),_(3,_9))  _C914      1.000000000000e+00
    edgepairs_((14,_15),_(3,_9))  _C1088     1.000000000000e+00
    edgepairs_((14,_15),_(3,_9))  _C1533     5.000000000000e-01
    edgepairs_((14,_15),_(3,_9))  OBJ        5.000000000000e-01
    MARK      'MARKER'                 'INTEND'
    MARK      'MARKER'                 'INTORG'
    edgepairs_((14,_15),_(4,_5))  _C70       1.000000000000e+00
    edgepairs_((14,_15),_(4,_5))  _C85       1.000000000000e+00
    edgepairs_((14,_15),_(4,_5))  _C505      1.000000000000e+00
    edgepairs_((14,_15),_(4,_5))  _C533      1.000000000000e+00
    edgepairs_((14,_15),_(4,_5))  _C943      1.000000000000e+00
    edgepairs_((14,_15),_(4,_5))  _C972      1.000000000000e+00
    edgepairs_((14,_15),_(4,_5))  _C1533     5.000000000000e-01
    edgepairs_((14,_15),_(4,_5))  OBJ        5.000000000000e-01
    MARK      'MARKER'                 'INTEND'
    MARK      'MARKER'                 'INTORG'
    edgepairs_((14,_15),_(5,_21))  _C70       1.000000000000e+00
    edgepairs_((14,_15),_(5,_21))  _C87       1.000000000000e+00
    edgepairs_((14,_15),_(5,_21))  _C507      1.000000000000e+00
    edgepairs_((14,_15),_(5,_21))  _C535      1.000000000000e+00
    edgepairs_((14,_15),_(5,_21))  _C972      1.000000000000e+00
    edgepairs_((14,_15),_(5,_21))  _C1436     1.000000000000e+00
    MARK      'MARKER'                 'INTEND'
    MARK      'MARKER'                 'INTORG'
    edgepairs_((14,_15),_(5,_6))  _C70       1.000000000000e+00
    edgepairs_((14,_15),_(5,_6))  _C86       1.000000000000e+00
    edgepairs_((14,_15),_(5,_6))  _C506      1.000000000000e+00
    edgepairs_((14,_15),_(5,_6))  _C534      1.000000000000e+00
    edgepairs_((14,_15),_(5,_6))  _C972      1.000000000000e+00
    edgepairs_((14,_15),_(5,_6))  _C1001     1.000000000000e+00
    edgepairs_((14,_15),_(5,_6))  _C1533     5.000000000000e-01
    edgepairs_((14,_15),_(5,_6))  OBJ        5.000000000000e-01
    MARK      'MARKER'                 'INTEND'
    MARK      'MARKER'                 'INTORG'
    edgepairs_((14,_15),_(6,_11))  _C70       1.000000000000e+00
    edgepairs_((14,_15),_(6,_11))  _C89       1.000000000000e+00
    edgepairs_((14,_15),_(6,_11))  _C509      1.000000000000e+00
    edgepairs_((14,_15),_(6,_11))  _C537      1.000000000000e+00
    edgepairs_((14,_15),_(6,_11))  _C1001     1.000000000000e+00
    edgepairs_((14,_15),_(6,_11))  _C1146     1.000000000000e+00
    MARK      'MARKER'                 'INTEND'
    MARK      'MARKER'                 'INTORG'
    edgepairs_((14,_15),_(6,_7))  _C70       1.000000000000e+00
    edgepairs_((14,_15),_(6,_7))  _C88       1.000000000000e+00
    edgepairs_((14,_15),_(6,_7))  _C508      1.000000000000e+00
    edgepairs_((14,_15),_(6,_7))  _C536      1.000000000000e+00
    edgepairs_((14,_15),_(6,_7))  _C1001     1.000000000000e+00
    edgepairs_((14,_15),_(6,_7))  _C1030     1.000000000000e+00
    edgepairs_((14,_15),_(6,_7))  _C1533     5.000000000000e-01
    edgepairs_((14,_15),_(6,_7))  OBJ        5.000000000000e-01
    MARK      'MARKER'                 'INTEND'
    MARK      'MARKER'                 'INTORG'
    edgepairs_((14,_15),_(7,_9))  _C70       1.000000000000e+00
    edgepairs_((14,_15),_(7,_9))  _C91       1.000000000000e+00
    edgepairs_((14,_15),_(7,_9))  _C511      1.000000000000e+00
    edgepairs_((14,_15),_(7,_9))  _C539      1.000000000000e+00
    edgepairs_((14,_15),_(7,_9))  _C1030     1.000000000000e+00
    edgepairs_((14,_15),_(7,_9))  _C1088     1.000000000000e+00
    edgepairs_((14,_15),_(7,_9))  _C1533     5.000000000000e-01
    edgepairs_((14,_15),_(7,_9))  OBJ        5.000000000000e-01
    MARK      'MARKER'                 'INTEND'
    MARK      'MARKER'                 'INTORG'
    edgepairs_((14,_15),__1)  _C70       1.000000000000e+00
    edgepairs_((14,_15),__1)  _C1533     1.000000000000e+00
    edgepairs_((14,_15),__1)  OBJ        1.000000000000e+00
    MARK      'MARKER'                 'INTEND'
    MARK      'MARKER'                 'INTORG'
    edgepairs_((15,_16),_(0,_1))  _C71       1.000000000000e+00
    edgepairs_((15,_16),_(0,_1))  _C80       1.000000000000e+00
    edgepairs_((15,_16),_(0,_1))  _C528      1.000000000000e+00
    edgepairs_((15,_16),_(0,_1))  _C556      1.000000000000e+00
    edgepairs_((15,_16),_(0,_1))  _C828      1.000000000000e+00
    edgepairs_((15,_16),_(0,_1))  _C857      1.000000000000e+00
    MARK      'MARKER'                 'INTEND'
    MARK      'MARKER'                 'INTORG'
    edgepairs_((15,_16),_(1,_2))  _C71       1.000000000000e+00
    edgepairs_((15,_16),_(1,_2))  _C81       1.000000000000e+00
    edgepairs_((15,_16),_(1,_2))  _C529      1.000000000000e+00
    edgepairs_((15,_16),_(1,_2))  _C557      1.000000000000e+00
    edgepairs_((15,_16),_(1,_2))  _C857      1.000000000000e+00
    edgepairs_((15,_16),_(1,_2))  _C886      1.000000000000e+00
    MARK      'MARKER'                 'INTEND'
    MARK      'MARKER'                 'INTORG'
    edgepairs_((15,_16),_(1,_3))  _C71       1.000000000000e+00
    edgepairs_((15,_16),_(1,_3))  _C82       1.000000000000e+00
    edgepairs_((15,_16),_(1,_3))  _C530      1.000000000000e+00
    edgepairs_((15,_16),_(1,_3))  _C558      1.000000000000e+00
    edgepairs_((15,_16),_(1,_3))  _C857      1.000000000000e+00
    edgepairs_((15,_16),_(1,_3))  _C915      1.000000000000e+00
    MARK      'MARKER'                 'INTEND'
    MARK      'MARKER'                 'INTORG'
    edgepairs_((15,_16),_(11,_12))  _C71       1.000000000000e+00
    edgepairs_((15,_16),_(11,_12))  _C93       1.000000000000e+00
    edgepairs_((15,_16),_(11,_12))  _C541      1.000000000000e+00
    edgepairs_((15,_16),_(11,_12))  _C569      1.000000000000e+00
    edgepairs_((15,_16),_(11,_12))  _C1147     1.000000000000e+00
    edgepairs_((15,_16),_(11,_12))  _C1176     1.000000000000e+00
    MARK      'MARKER'                 'INTEND'
    MARK      'MARKER'                 'INTORG'
    edgepairs_((15,_16),_(11,_18))  _C71       1.000000000000e+00
    edgepairs_((15,_16),_(11,_18))  _C94       1.000000000000e+00
    edgepairs_((15,_16),_(11,_18))  _C542      1.000000000000e+00
    edgepairs_((15,_16),_(11,_18))  _C570      1.000000000000e+00
    edgepairs_((15,_16),_(11,_18))  _C1147     1.000000000000e+00
    edgepairs_((15,_16),_(11,_18))  _C1350     1.000000000000e+00
    MARK      'MARKER'                 'INTEND'
    MARK      'MARKER'                 'INTORG'
    edgepairs_((15,_16),_(11,_23))  _C71       1.000000000000e+00
    edgepairs_((15,_16),_(11,_23))  _C95       1.000000000000e+00
    edgepairs_((15,_16),_(11,_23))  _C543      1.000000000000e+00
    edgepairs_((15,_16),_(11,_23))  _C571      1.000000000000e+00
    edgepairs_((15,_16),_(11,_23))  _C1147     1.000000000000e+00
    edgepairs_((15,_16),_(11,_23))  _C1495     1.000000000000e+00
    MARK      'MARKER'                 'INTEND'
    MARK      'MARKER'                 'INTORG'
    edgepairs_((15,_16),_(12,_13))  _C71       1.000000000000e+00
    edgepairs_((15,_16),_(12,_13))  _C96       1.000000000000e+00
    edgepairs_((15,_16),_(12,_13))  _C544      1.000000000000e+00
    edgepairs_((15,_16),_(12,_13))  _C572      1.000000000000e+00
    edgepairs_((15,_16),_(12,_13))  _C1176     1.000000000000e+00
    edgepairs_((15,_16),_(12,_13))  _C1205     1.000000000000e+00
    MARK      'MARKER'                 'INTEND'
    MARK      'MARKER'                 'INTORG'
    edgepairs_((15,_16),_(13,_14))  _C71       1.000000000000e+00
    edgepairs_((15,_16),_(13,_14))  _C97       1.000000000000e+00
    edgepairs_((15,_16),_(13,_14))  _C545      1.000000000000e+00
    edgepairs_((15,_16),_(13,_14))  _C573      1.000000000000e+00
    edgepairs_((15,_16),_(13,_14))  _C1205     1.000000000000e+00
    edgepairs_((15,_16),_(13,_14))  _C1234     1.000000000000e+00
    MARK      'MARKER'                 'INTEND'
    MARK      'MARKER'                 'INTORG'
    edgepairs_((15,_16),_(14,_15))  _C71       1.000000000000e+00
    edgepairs_((15,_16),_(14,_15))  _C98       1.000000000000e+00
    edgepairs_((15,_16),_(14,_15))  _C546      1.000000000000e+00
    edgepairs_((15,_16),_(14,_15))  _C574      1.000000000000e+00
    edgepairs_((15,_16),_(14,_15))  _C1234     1.000000000000e+00
    edgepairs_((15,_16),_(14,_15))  _C1263     1.000000000000e+00
    MARK      'MARKER'                 'INTEND'
    MARK      'MARKER'                 'INTORG'
    edgepairs_((15,_16),_(15,_16))  _C71       1.000000000000e+00
    edgepairs_((15,_16),_(15,_16))  _C99       1.000000000000e+00
    edgepairs_((15,_16),_(15,_16))  _C547      1.000000000000e+00
    edgepairs_((15,_16),_(15,_16))  _C575      1.000000000000e+00
    edgepairs_((15,_16),_(15,_16))  _C1263     1.000000000000e+00
    edgepairs_((15,_16),_(15,_16))  _C1292     1.000000000000e+00
    MARK      'MARKER'                 'INTEND'
    MARK      'MARKER'                 'INTORG'
    edgepairs_((15,_16),_(15,_17))  _C71       1.000000000000e+00
    edgepairs_((15,_16),_(15,_17))  _C100      1.000000000000e+00
    edgepairs_((15,_16),_(15,_17))  _C548      1.000000000000e+00
    edgepairs_((15,_16),_(15,_17))  _C576      1.000000000000e+00
    edgepairs_((15,_16),_(15,_17))  _C1263     1.000000000000e+00
    edgepairs_((15,_16),_(15,_17))  _C1321     1.000000000000e+00
    MARK      'MARKER'                 'INTEND'
    MARK      'MARKER'                 'INTORG'
    edgepairs_((15,_16),_(15,_18))  _C71       1.000000000000e+00
    edgepairs_((15,_16),_(15,_18))  _C101      1.000000000000e+00
    edgepairs_((15,_16),_(15,_18))  _C549      1.000000000000e+00
    edgepairs_((15,_16),_(15,_18))  _C577      1.000000000000e+00
    edgepairs_((15,_16),_(15,_18))  _C1263     1.000000000000e+00
    edgepairs_((15,_16),_(15,_18))  _C1350     1.000000000000e+00
    MARK      'MARKER'                 'INTEND'
    MARK      'MARKER'                 'INTORG'
    edgepairs_((15,_16),_(18,_19))  _C71       1.000000000000e+00
    edgepairs_((15,_16),_(18,_19))  _C102      1.000000000000e+00
    edgepairs_((15,_16),_(18,_19))  _C550      1.000000000000e+00
    edgepairs_((15,_16),_(18,_19))  _C578      1.000000000000e+00
    edgepairs_((15,_16),_(18,_19))  _C1350     1.000000000000e+00
    edgepairs_((15,_16),_(18,_19))  _C1379     1.000000000000e+00
    MARK      'MARKER'                 'INTEND'
    MARK      'MARKER'                 'INTORG'
    edgepairs_((15,_16),_(19,_21))  _C71       1.000000000000e+00
    edgepairs_((15,_16),_(19,_21))  _C104      1.000000000000e+00
    edgepairs_((15,_16),_(19,_21))  _C552      1.000000000000e+00
    edgepairs_((15,_16),_(19,_21))  _C580      1.000000000000e+00
    edgepairs_((15,_16),_(19,_21))  _C1379     1.000000000000e+00
    edgepairs_((15,_16),_(19,_21))  _C1437     1.000000000000e+00
    MARK      'MARKER'                 'INTEND'
    MARK      'MARKER'                 'INTORG'
    edgepairs_((15,_16),_(3,_4))  _C71       1.000000000000e+00
    edgepairs_((15,_16),_(3,_4))  _C83       1.000000000000e+00
    edgepairs_((15,_16),_(3,_4))  _C531      1.000000000000e+00
    edgepairs_((15,_16),_(3,_4))  _C559      1.000000000000e+00
    edgepairs_((15,_16),_(3,_4))  _C915      1.000000000000e+00
    edgepairs_((15,_16),_(3,_4))  _C944      1.000000000000e+00
    edgepairs_((15,_16),_(3,_4))  _C1533     5.000000000000e-01
    edgepairs_((15,_16),_(3,_4))  OBJ        5.000000000000e-01
    MARK      'MARKER'                 'INTEND'
    MARK      'MARKER'                 'INTORG'
    edgepairs_((15,_16),_(3,_9))  _C71       1.000000000000e+00
    edgepairs_((15,_16),_(3,_9))  _C84       1.000000000000e+00
    edgepairs_((15,_16),_(3,_9))  _C532      1.000000000000e+00
    edgepairs_((15,_16),_(3,_9))  _C560      1.000000000000e+00
    edgepairs_((15,_16),_(3,_9))  _C915      1.000000000000e+00
    edgepairs_((15,_16),_(3,_9))  _C1089     1.000000000000e+00
    edgepairs_((15,_16),_(3,_9))  _C1533     5.000000000000e-01
    edgepairs_((15,_16),_(3,_9))  OBJ        5.000000000000e-01
    MARK      'MARKER'                 'INTEND'
    MARK      'MARKER'                 'INTORG'
    edgepairs_((15,_16),_(4,_5))  _C71       1.000000000000e+00
    edgepairs_((15,_16),_(4,_5))  _C85       1.000000000000e+00
    edgepairs_((15,_16),_(4,_5))  _C533      1.000000000000e+00
    edgepairs_((15,_16),_(4,_5))  _C561      1.000000000000e+00
    edgepairs_((15,_16),_(4,_5))  _C944      1.000000000000e+00
    edgepairs_((15,_16),_(4,_5))  _C973      1.000000000000e+00
    edgepairs_((15,_16),_(4,_5))  _C1533     5.000000000000e-01
    edgepairs_((15,_16),_(4,_5))  OBJ        5.000000000000e-01
    MARK      'MARKER'                 'INTEND'
    MARK      'MARKER'                 'INTORG'
    edgepairs_((15,_16),_(5,_21))  _C71       1.000000000000e+00
    edgepairs_((15,_16),_(5,_21))  _C87       1.000000000000e+00
    edgepairs_((15,_16),_(5,_21))  _C535      1.000000000000e+00
    edgepairs_((15,_16),_(5,_21))  _C563      1.000000000000e+00
    edgepairs_((15,_16),_(5,_21))  _C973      1.000000000000e+00
    edgepairs_((15,_16),_(5,_21))  _C1437     1.000000000000e+00
    MARK      'MARKER'                 'INTEND'
    MARK      'MARKER'                 'INTORG'
    edgepairs_((15,_16),_(5,_6))  _C71       1.000000000000e+00
    edgepairs_((15,_16),_(5,_6))  _C86       1.000000000000e+00
    edgepairs_((15,_16),_(5,_6))  _C534      1.000000000000e+00
    edgepairs_((15,_16),_(5,_6))  _C562      1.000000000000e+00
    edgepairs_((15,_16),_(5,_6))  _C973      1.000000000000e+00
    edgepairs_((15,_16),_(5,_6))  _C1002     1.000000000000e+00
    edgepairs_((15,_16),_(5,_6))  _C1533     5.000000000000e-01
    edgepairs_((15,_16),_(5,_6))  OBJ        5.000000000000e-01
    MARK      'MARKER'                 'INTEND'
    MARK      'MARKER'                 'INTORG'
    edgepairs_((15,_16),_(6,_11))  _C71       1.000000000000e+00
    edgepairs_((15,_16),_(6,_11))  _C89       1.000000000000e+00
    edgepairs_((15,_16),_(6,_11))  _C537      1.000000000000e+00
    edgepairs_((15,_16),_(6,_11))  _C565      1.000000000000e+00
    edgepairs_((15,_16),_(6,_11))  _C1002     1.000000000000e+00
    edgepairs_((15,_16),_(6,_11))  _C1147     1.000000000000e+00
    MARK      'MARKER'                 'INTEND'
    MARK      'MARKER'                 'INTORG'
    edgepairs_((15,_16),_(6,_7))  _C71       1.000000000000e+00
    edgepairs_((15,_16),_(6,_7))  _C88       1.000000000000e+00
    edgepairs_((15,_16),_(6,_7))  _C536      1.000000000000e+00
    edgepairs_((15,_16),_(6,_7))  _C564      1.000000000000e+00
    edgepairs_((15,_16),_(6,_7))  _C1002     1.000000000000e+00
    edgepairs_((15,_16),_(6,_7))  _C1031     1.000000000000e+00
    edgepairs_((15,_16),_(6,_7))  _C1533     5.000000000000e-01
    edgepairs_((15,_16),_(6,_7))  OBJ        5.000000000000e-01
    MARK      'MARKER'                 'INTEND'
    MARK      'MARKER'                 'INTORG'
    edgepairs_((15,_16),_(7,_9))  _C71       1.000000000000e+00
    edgepairs_((15,_16),_(7,_9))  _C91       1.000000000000e+00
    edgepairs_((15,_16),_(7,_9))  _C539      1.000000000000e+00
    edgepairs_((15,_16),_(7,_9))  _C567      1.000000000000e+00
    edgepairs_((15,_16),_(7,_9))  _C1031     1.000000000000e+00
    edgepairs_((15,_16),_(7,_9))  _C1089     1.000000000000e+00
    edgepairs_((15,_16),_(7,_9))  _C1533     5.000000000000e-01
    edgepairs_((15,_16),_(7,_9))  OBJ        5.000000000000e-01
    MARK      'MARKER'                 'INTEND'
    MARK      'MARKER'                 'INTORG'
    edgepairs_((15,_16),__1)  _C71       1.000000000000e+00
    edgepairs_((15,_16),__1)  _C1533     1.000000000000e+00
    edgepairs_((15,_16),__1)  OBJ        1.000000000000e+00
    MARK      'MARKER'                 'INTEND'
    MARK      'MARKER'                 'INTORG'
    edgepairs_((16,_17),_(0,_1))  _C72       1.000000000000e+00
    edgepairs_((16,_17),_(0,_1))  _C80       1.000000000000e+00
    edgepairs_((16,_17),_(0,_1))  _C556      1.000000000000e+00
    edgepairs_((16,_17),_(0,_1))  _C584      1.000000000000e+00
    edgepairs_((16,_17),_(0,_1))  _C829      1.000000000000e+00
    edgepairs_((16,_17),_(0,_1))  _C858      1.000000000000e+00
    MARK      'MARKER'                 'INTEND'
    MARK      'MARKER'                 'INTORG'
    edgepairs_((16,_17),_(1,_2))  _C72       1.000000000000e+00
    edgepairs_((16,_17),_(1,_2))  _C81       1.000000000000e+00
    edgepairs_((16,_17),_(1,_2))  _C557      1.000000000000e+00
    edgepairs_((16,_17),_(1,_2))  _C585      1.000000000000e+00
    edgepairs_((16,_17),_(1,_2))  _C858      1.000000000000e+00
    edgepairs_((16,_17),_(1,_2))  _C887      1.000000000000e+00
    MARK      'MARKER'                 'INTEND'
    MARK      'MARKER'                 'INTORG'
    edgepairs_((16,_17),_(1,_3))  _C72       1.000000000000e+00
    edgepairs_((16,_17),_(1,_3))  _C82       1.000000000000e+00
    edgepairs_((16,_17),_(1,_3))  _C558      1.000000000000e+00
    edgepairs_((16,_17),_(1,_3))  _C586      1.000000000000e+00
    edgepairs_((16,_17),_(1,_3))  _C858      1.000000000000e+00
    edgepairs_((16,_17),_(1,_3))  _C916      1.000000000000e+00
    MARK      'MARKER'                 'INTEND'
    MARK      'MARKER'                 'INTORG'
    edgepairs_((16,_17),_(11,_12))  _C72       1.000000000000e+00
    edgepairs_((16,_17),_(11,_12))  _C93       1.000000000000e+00
    edgepairs_((16,_17),_(11,_12))  _C569      1.000000000000e+00
    edgepairs_((16,_17),_(11,_12))  _C597      1.000000000000e+00
    edgepairs_((16,_17),_(11,_12))  _C1148     1.000000000000e+00
    edgepairs_((16,_17),_(11,_12))  _C1177     1.000000000000e+00
    MARK      'MARKER'                 'INTEND'
    MARK      'MARKER'                 'INTORG'
    edgepairs_((16,_17),_(11,_18))  _C72       1.000000000000e+00
    edgepairs_((16,_17),_(11,_18))  _C94       1.000000000000e+00
    edgepairs_((16,_17),_(11,_18))  _C570      1.000000000000e+00
    edgepairs_((16,_17),_(11,_18))  _C598      1.000000000000e+00
    edgepairs_((16,_17),_(11,_18))  _C1148     1.000000000000e+00
    edgepairs_((16,_17),_(11,_18))  _C1351     1.000000000000e+00
    MARK      'MARKER'                 'INTEND'
    MARK      'MARKER'                 'INTORG'
    edgepairs_((16,_17),_(11,_23))  _C72       1.000000000000e+00
    edgepairs_((16,_17),_(11,_23))  _C95       1.000000000000e+00
    edgepairs_((16,_17),_(11,_23))  _C571      1.000000000000e+00
    edgepairs_((16,_17),_(11,_23))  _C599      1.000000000000e+00
    edgepairs_((16,_17),_(11,_23))  _C1148     1.000000000000e+00
    edgepairs_((16,_17),_(11,_23))  _C1496     1.000000000000e+00
    MARK      'MARKER'                 'INTEND'
    MARK      'MARKER'                 'INTORG'
    edgepairs_((16,_17),_(12,_13))  _C72       1.000000000000e+00
    edgepairs_((16,_17),_(12,_13))  _C96       1.000000000000e+00
    edgepairs_((16,_17),_(12,_13))  _C572      1.000000000000e+00
    edgepairs_((16,_17),_(12,_13))  _C600      1.000000000000e+00
    edgepairs_((16,_17),_(12,_13))  _C1177     1.000000000000e+00
    edgepairs_((16,_17),_(12,_13))  _C1206     1.000000000000e+00
    MARK      'MARKER'                 'INTEND'
    MARK      'MARKER'                 'INTORG'
    edgepairs_((16,_17),_(13,_14))  _C72       1.000000000000e+00
    edgepairs_((16,_17),_(13,_14))  _C97       1.000000000000e+00
    edgepairs_((16,_17),_(13,_14))  _C573      1.000000000000e+00
    edgepairs_((16,_17),_(13,_14))  _C601      1.000000000000e+00
    edgepairs_((16,_17),_(13,_14))  _C1206     1.000000000000e+00
    edgepairs_((16,_17),_(13,_14))  _C1235     1.000000000000e+00
    MARK      'MARKER'                 'INTEND'
    MARK      'MARKER'                 'INTORG'
    edgepairs_((16,_17),_(14,_15))  _C72       1.000000000000e+00
    edgepairs_((16,_17),_(14,_15))  _C98       1.000000000000e+00
    edgepairs_((16,_17),_(14,_15))  _C574      1.000000000000e+00
    edgepairs_((16,_17),_(14,_15))  _C602      1.000000000000e+00
    edgepairs_((16,_17),_(14,_15))  _C1235     1.000000000000e+00
    edgepairs_((16,_17),_(14,_15))  _C1264     1.000000000000e+00
    MARK      'MARKER'                 'INTEND'
    MARK      'MARKER'                 'INTORG'
    edgepairs_((16,_17),_(15,_16))  _C72       1.000000000000e+00
    edgepairs_((16,_17),_(15,_16))  _C99       1.000000000000e+00
    edgepairs_((16,_17),_(15,_16))  _C575      1.000000000000e+00
    edgepairs_((16,_17),_(15,_16))  _C603      1.000000000000e+00
    edgepairs_((16,_17),_(15,_16))  _C1264     1.000000000000e+00
    edgepairs_((16,_17),_(15,_16))  _C1293     1.000000000000e+00
    MARK      'MARKER'                 'INTEND'
    MARK      'MARKER'                 'INTORG'
    edgepairs_((16,_17),_(15,_17))  _C72       1.000000000000e+00
    edgepairs_((16,_17),_(15,_17))  _C100      1.000000000000e+00
    edgepairs_((16,_17),_(15,_17))  _C576      1.000000000000e+00
    edgepairs_((16,_17),_(15,_17))  _C604      1.000000000000e+00
    edgepairs_((16,_17),_(15,_17))  _C1264     1.000000000000e+00
    edgepairs_((16,_17),_(15,_17))  _C1322     1.000000000000e+00
    MARK      'MARKER'                 'INTEND'
    MARK      'MARKER'                 'INTORG'
    edgepairs_((16,_17),_(15,_18))  _C72       1.000000000000e+00
    edgepairs_((16,_17),_(15,_18))  _C101      1.000000000000e+00
    edgepairs_((16,_17),_(15,_18))  _C577      1.000000000000e+00
    edgepairs_((16,_17),_(15,_18))  _C605      1.000000000000e+00
    edgepairs_((16,_17),_(15,_18))  _C1264     1.000000000000e+00
    edgepairs_((16,_17),_(15,_18))  _C1351     1.000000000000e+00
    MARK      'MARKER'                 'INTEND'
    MARK      'MARKER'                 'INTORG'
    edgepairs_((16,_17),_(18,_19))  _C72       1.000000000000e+00
    edgepairs_((16,_17),_(18,_19))  _C102      1.000000000000e+00
    edgepairs_((16,_17),_(18,_19))  _C578      1.000000000000e+00
    edgepairs_((16,_17),_(18,_19))  _C606      1.000000000000e+00
    edgepairs_((16,_17),_(18,_19))  _C1351     1.000000000000e+00
    edgepairs_((16,_17),_(18,_19))  _C1380     1.000000000000e+00
    MARK      'MARKER'                 'INTEND'
    MARK      'MARKER'                 'INTORG'
    edgepairs_((16,_17),_(19,_21))  _C72       1.000000000000e+00
    edgepairs_((16,_17),_(19,_21))  _C104      1.000000000000e+00
    edgepairs_((16,_17),_(19,_21))  _C580      1.000000000000e+00
    edgepairs_((16,_17),_(19,_21))  _C608      1.000000000000e+00
    edgepairs_((16,_17),_(19,_21))  _C1380     1.000000000000e+00
    edgepairs_((16,_17),_(19,_21))  _C1438     1.000000000000e+00
    MARK      'MARKER'                 'INTEND'
    MARK      'MARKER'                 'INTORG'
    edgepairs_((16,_17),_(3,_4))  _C72       1.000000000000e+00
    edgepairs_((16,_17),_(3,_4))  _C83       1.000000000000e+00
    edgepairs_((16,_17),_(3,_4))  _C559      1.000000000000e+00
    edgepairs_((16,_17),_(3,_4))  _C587      1.000000000000e+00
    edgepairs_((16,_17),_(3,_4))  _C916      1.000000000000e+00
    edgepairs_((16,_17),_(3,_4))  _C945      1.000000000000e+00
    edgepairs_((16,_17),_(3,_4))  _C1533     5.000000000000e-01
    edgepairs_((16,_17),_(3,_4))  OBJ        5.000000000000e-01
    MARK      'MARKER'                 'INTEND'
    MARK      'MARKER'                 'INTORG'
    edgepairs_((16,_17),_(3,_9))  _C72       1.000000000000e+00
    edgepairs_((16,_17),_(3,_9))  _C84       1.000000000000e+00
    edgepairs_((16,_17),_(3,_9))  _C560      1.000000000000e+00
    edgepairs_((16,_17),_(3,_9))  _C588      1.000000000000e+00
    edgepairs_((16,_17),_(3,_9))  _C916      1.000000000000e+00
    edgepairs_((16,_17),_(3,_9))  _C1090     1.000000000000e+00
    edgepairs_((16,_17),_(3,_9))  _C1533     5.000000000000e-01
    edgepairs_((16,_17),_(3,_9))  OBJ        5.000000000000e-01
    MARK      'MARKER'                 'INTEND'
    MARK      'MARKER'                 'INTORG'
    edgepairs_((16,_17),_(4,_5))  _C72       1.000000000000e+00
    edgepairs_((16,_17),_(4,_5))  _C85       1.000000000000e+00
    edgepairs_((16,_17),_(4,_5))  _C561      1.000000000000e+00
    edgepairs_((16,_17),_(4,_5))  _C589      1.000000000000e+00
    edgepairs_((16,_17),_(4,_5))  _C945      1.000000000000e+00
    edgepairs_((16,_17),_(4,_5))  _C974      1.000000000000e+00
    edgepairs_((16,_17),_(4,_5))  _C1533     5.000000000000e-01
    edgepairs_((16,_17),_(4,_5))  OBJ        5.000000000000e-01
    MARK      'MARKER'                 'INTEND'
    MARK      'MARKER'                 'INTORG'
    edgepairs_((16,_17),_(5,_21))  _C72       1.000000000000e+00
    edgepairs_((16,_17),_(5,_21))  _C87       1.000000000000e+00
    edgepairs_((16,_17),_(5,_21))  _C563      1.000000000000e+00
    edgepairs_((16,_17),_(5,_21))  _C591      1.000000000000e+00
    edgepairs_((16,_17),_(5,_21))  _C974      1.000000000000e+00
    edgepairs_((16,_17),_(5,_21))  _C1438     1.000000000000e+00
    MARK      'MARKER'                 'INTEND'
    MARK      'MARKER'                 'INTORG'
    edgepairs_((16,_17),_(5,_6))  _C72       1.000000000000e+00
    edgepairs_((16,_17),_(5,_6))  _C86       1.000000000000e+00
    edgepairs_((16,_17),_(5,_6))  _C562      1.000000000000e+00
    edgepairs_((16,_17),_(5,_6))  _C590      1.000000000000e+00
    edgepairs_((16,_17),_(5,_6))  _C974      1.000000000000e+00
    edgepairs_((16,_17),_(5,_6))  _C1003     1.000000000000e+00
    edgepairs_((16,_17),_(5,_6))  _C1533     5.000000000000e-01
    edgepairs_((16,_17),_(5,_6))  OBJ        5.000000000000e-01
    MARK      'MARKER'                 'INTEND'
    MARK      'MARKER'                 'INTORG'
    edgepairs_((16,_17),_(6,_11))  _C72       1.000000000000e+00
    edgepairs_((16,_17),_(6,_11))  _C89       1.000000000000e+00
    edgepairs_((16,_17),_(6,_11))  _C565      1.000000000000e+00
    edgepairs_((16,_17),_(6,_11))  _C593      1.000000000000e+00
    edgepairs_((16,_17),_(6,_11))  _C1003     1.000000000000e+00
    edgepairs_((16,_17),_(6,_11))  _C1148     1.000000000000e+00
    MARK      'MARKER'                 'INTEND'
    MARK      'MARKER'                 'INTORG'
    edgepairs_((16,_17),_(6,_7))  _C72       1.000000000000e+00
    edgepairs_((16,_17),_(6,_7))  _C88       1.000000000000e+00
    edgepairs_((16,_17),_(6,_7))  _C564      1.000000000000e+00
    edgepairs_((16,_17),_(6,_7))  _C592      1.000000000000e+00
    edgepairs_((16,_17),_(6,_7))  _C1003     1.000000000000e+00
    edgepairs_((16,_17),_(6,_7))  _C1032     1.000000000000e+00
    edgepairs_((16,_17),_(6,_7))  _C1533     5.000000000000e-01
    edgepairs_((16,_17),_(6,_7))  OBJ        5.000000000000e-01
    MARK      'MARKER'                 'INTEND'
    MARK      'MARKER'                 'INTORG'
    edgepairs_((16,_17),_(7,_9))  _C72       1.000000000000e+00
    edgepairs_((16,_17),_(7,_9))  _C91       1.000000000000e+00
    edgepairs_((16,_17),_(7,_9))  _C567      1.000000000000e+00
    edgepairs_((16,_17),_(7,_9))  _C595      1.000000000000e+00
    edgepairs_((16,_17),_(7,_9))  _C1032     1.000000000000e+00
    edgepairs_((16,_17),_(7,_9))  _C1090     1.000000000000e+00
    edgepairs_((16,_17),_(7,_9))  _C1533     5.000000000000e-01
    edgepairs_((16,_17),_(7,_9))  OBJ        5.000000000000e-01
    MARK      'MARKER'                 'INTEND'
    MARK      'MARKER'                 'INTORG'
    edgepairs_((16,_17),__1)  _C72       1.000000000000e+00
    edgepairs_((16,_17),__1)  _C1533     1.000000000000e+00
    edgepairs_((16,_17),__1)  OBJ        1.000000000000e+00
    MARK      'MARKER'                 'INTEND'
    MARK      'MARKER'                 'INTORG'
    edgepairs_((17,_18),_(19,_20))  _C73       1.000000000000e+00
    edgepairs_((17,_18),_(19,_20))  _C103      1.000000000000e+00
    edgepairs_((17,_18),_(19,_20))  _C607      1.000000000000e+00
    edgepairs_((17,_18),_(19,_20))  _C635      1.000000000000e+00
    edgepairs_((17,_18),_(19,_20))  _C1381     1.000000000000e+00
    edgepairs_((17,_18),_(19,_20))  _C1410     1.000000000000e+00
    MARK      'MARKER'                 'INTEND'
    MARK      'MARKER'                 'INTORG'
    edgepairs_((17,_18),_(21,_22))  _C73       1.000000000000e+00
    edgepairs_((17,_18),_(21,_22))  _C105      1.000000000000e+00
    edgepairs_((17,_18),_(21,_22))  _C609      1.000000000000e+00
    edgepairs_((17,_18),_(21,_22))  _C637      1.000000000000e+00
    edgepairs_((17,_18),_(21,_22))  _C1439     1.000000000000e+00
    edgepairs_((17,_18),_(21,_22))  _C1468     1.000000000000e+00
    MARK      'MARKER'                 'INTEND'
    MARK      'MARKER'                 'INTORG'
    edgepairs_((17,_18),_(22,_23))  _C73       1.000000000000e+00
    edgepairs_((17,_18),_(22,_23))  _C106      1.000000000000e+00
    edgepairs_((17,_18),_(22,_23))  _C610      1.000000000000e+00
    edgepairs_((17,_18),_(22,_23))  _C638      1.000000000000e+00
    edgepairs_((17,_18),_(22,_23))  _C1468     1.000000000000e+00
    edgepairs_((17,_18),_(22,_23))  _C1497     1.000000000000e+00
    MARK      'MARKER'                 'INTEND'
    MARK      'MARKER'                 'INTORG'
    edgepairs_((17,_18),_(23,_24))  _C73       1.000000000000e+00
    edgepairs_((17,_18),_(23,_24))  _C107      1.000000000000e+00
    edgepairs_((17,_18),_(23,_24))  _C611      1.000000000000e+00
    edgepairs_((17,_18),_(23,_24))  _C639      1.000000000000e+00
    edgepairs_((17,_18),_(23,_24))  _C1497     1.000000000000e+00
    edgepairs_((17,_18),_(23,_24))  _C1526     1.000000000000e+00
    edgepairs_((17,_18),_(23,_24))  _C1533     1.000000000000e+00
    edgepairs_((17,_18),_(23,_24))  OBJ        1.000000000000e+00
    MARK      'MARKER'                 'INTEND'
    MARK      'MARKER'                 'INTORG'
    edgepairs_((17,_18),_(7,_8))  _C73       1.000000000000e+00
    edgepairs_((17,_18),_(7,_8))  _C90       1.000000000000e+00
    edgepairs_((17,_18),_(7,_8))  _C594      1.000000000000e+00
    edgepairs_((17,_18),_(7,_8))  _C622      1.000000000000e+00
    edgepairs_((17,_18),_(7,_8))  _C1033     1.000000000000e+00
    edgepairs_((17,_18),_(7,_8))  _C1062     1.000000000000e+00
    MARK      'MARKER'                 'INTEND'
    MARK      'MARKER'                 'INTORG'
    edgepairs_((17,_18),_(9,_10))  _C73       1.000000000000e+00
    edgepairs_((17,_18),_(9,_10))  _C92       1.000000000000e+00
    edgepairs_((17,_18),_(9,_10))  _C596      1.000000000000e+00
    edgepairs_((17,_18),_(9,_10))  _C624      1.000000000000e+00
    edgepairs_((17,_18),_(9,_10))  _C1091     1.000000000000e+00
    edgepairs_((17,_18),_(9,_10))  _C1120     1.000000000000e+00
    MARK      'MARKER'                 'INTEND'
    MARK      'MARKER'                 'INTORG'
    edgepairs_((17,_18),__1)  _C73       1.000000000000e+00
    edgepairs_((17,_18),__1)  _C1533     1.000000000000e+00
    edgepairs_((17,_18),__1)  OBJ        1.000000000000e+00
    MARK      'MARKER'                 'INTEND'
    MARK      'MARKER'                 'INTORG'
    edgepairs_((17,_21),_(0,_1))  _C74       1.000000000000e+00
    edgepairs_((17,_21),_(0,_1))  _C80       1.000000000000e+00
    edgepairs_((17,_21),_(0,_1))  _C584      1.000000000000e+00
    edgepairs_((17,_21),_(0,_1))  _C696      1.000000000000e+00
    edgepairs_((17,_21),_(0,_1))  _C831      1.000000000000e+00
    edgepairs_((17,_21),_(0,_1))  _C860      1.000000000000e+00
    MARK      'MARKER'                 'INTEND'
    MARK      'MARKER'                 'INTORG'
    edgepairs_((17,_21),_(1,_2))  _C74       1.000000000000e+00
    edgepairs_((17,_21),_(1,_2))  _C81       1.000000000000e+00
    edgepairs_((17,_21),_(1,_2))  _C585      1.000000000000e+00
    edgepairs_((17,_21),_(1,_2))  _C697      1.000000000000e+00
    edgepairs_((17,_21),_(1,_2))  _C860      1.000000000000e+00
    edgepairs_((17,_21),_(1,_2))  _C889      1.000000000000e+00
    MARK      'MARKER'                 'INTEND'
    MARK      'MARKER'                 'INTORG'
    edgepairs_((17,_21),_(1,_3))  _C74       1.000000000000e+00
    edgepairs_((17,_21),_(1,_3))  _C82       1.000000000000e+00
    edgepairs_((17,_21),_(1,_3))  _C586      1.000000000000e+00
    edgepairs_((17,_21),_(1,_3))  _C698      1.000000000000e+00
    edgepairs_((17,_21),_(1,_3))  _C860      1.000000000000e+00
    edgepairs_((17,_21),_(1,_3))  _C918      1.000000000000e+00
    MARK      'MARKER'                 'INTEND'
    MARK      'MARKER'                 'INTORG'
    edgepairs_((17,_21),_(11,_12))  _C74       1.000000000000e+00
    edgepairs_((17,_21),_(11,_12))  _C93       1.000000000000e+00
    edgepairs_((17,_21),_(11,_12))  _C597      1.000000000000e+00
    edgepairs_((17,_21),_(11,_12))  _C709      1.000000000000e+00
    edgepairs_((17,_21),_(11,_12))  _C1150     1.000000000000e+00
    edgepairs_((17,_21),_(11,_12))  _C1179     1.000000000000e+00
    MARK      'MARKER'                 'INTEND'
    MARK      'MARKER'                 'INTORG'
    edgepairs_((17,_21),_(11,_18))  _C74       1.000000000000e+00
    edgepairs_((17,_21),_(11,_18))  _C94       1.000000000000e+00
    edgepairs_((17,_21),_(11,_18))  _C598      1.000000000000e+00
    edgepairs_((17,_21),_(11,_18))  _C710      1.000000000000e+00
    edgepairs_((17,_21),_(11,_18))  _C1150     1.000000000000e+00
    edgepairs_((17,_21),_(11,_18))  _C1353     1.000000000000e+00
    MARK      'MARKER'                 'INTEND'
    MARK      'MARKER'                 'INTORG'
    edgepairs_((17,_21),_(11,_23))  _C74       1.000000000000e+00
    edgepairs_((17,_21),_(11,_23))  _C95       1.000000000000e+00
    edgepairs_((17,_21),_(11,_23))  _C599      1.000000000000e+00
    edgepairs_((17,_21),_(11,_23))  _C711      1.000000000000e+00
    edgepairs_((17,_21),_(11,_23))  _C1150     1.000000000000e+00
    edgepairs_((17,_21),_(11,_23))  _C1498     1.000000000000e+00
    MARK      'MARKER'                 'INTEND'
    MARK      'MARKER'                 'INTORG'
    edgepairs_((17,_21),_(12,_13))  _C74       1.000000000000e+00
    edgepairs_((17,_21),_(12,_13))  _C96       1.000000000000e+00
    edgepairs_((17,_21),_(12,_13))  _C600      1.000000000000e+00
    edgepairs_((17,_21),_(12,_13))  _C712      1.000000000000e+00
    edgepairs_((17,_21),_(12,_13))  _C1179     1.000000000000e+00
    edgepairs_((17,_21),_(12,_13))  _C1208     1.000000000000e+00
    MARK      'MARKER'                 'INTEND'
    MARK      'MARKER'                 'INTORG'
    edgepairs_((17,_21),_(13,_14))  _C74       1.000000000000e+00
    edgepairs_((17,_21),_(13,_14))  _C97       1.000000000000e+00
    edgepairs_((17,_21),_(13,_14))  _C601      1.000000000000e+00
    edgepairs_((17,_21),_(13,_14))  _C713      1.000000000000e+00
    edgepairs_((17,_21),_(13,_14))  _C1208     1.000000000000e+00
    edgepairs_((17,_21),_(13,_14))  _C1237     1.000000000000e+00
    MARK      'MARKER'                 'INTEND'
    MARK      'MARKER'                 'INTORG'
    edgepairs_((17,_21),_(14,_15))  _C74       1.000000000000e+00
    edgepairs_((17,_21),_(14,_15))  _C98       1.000000000000e+00
    edgepairs_((17,_21),_(14,_15))  _C602      1.000000000000e+00
    edgepairs_((17,_21),_(14,_15))  _C714      1.000000000000e+00
    edgepairs_((17,_21),_(14,_15))  _C1237     1.000000000000e+00
    edgepairs_((17,_21),_(14,_15))  _C1266     1.000000000000e+00
    MARK      'MARKER'                 'INTEND'
    MARK      'MARKER'                 'INTORG'
    edgepairs_((17,_21),_(15,_16))  _C74       1.000000000000e+00
    edgepairs_((17,_21),_(15,_16))  _C99       1.000000000000e+00
    edgepairs_((17,_21),_(15,_16))  _C603      1.000000000000e+00
    edgepairs_((17,_21),_(15,_16))  _C715      1.000000000000e+00
    edgepairs_((17,_21),_(15,_16))  _C1266     1.000000000000e+00
    edgepairs_((17,_21),_(15,_16))  _C1295     1.000000000000e+00
    MARK      'MARKER'                 'INTEND'
    MARK      'MARKER'                 'INTORG'
    edgepairs_((17,_21),_(15,_17))  _C74       1.000000000000e+00
    edgepairs_((17,_21),_(15,_17))  _C100      1.000000000000e+00
    edgepairs_((17,_21),_(15,_17))  _C604      1.000000000000e+00
    edgepairs_((17,_21),_(15,_17))  _C716      1.000000000000e+00
    edgepairs_((17,_21),_(15,_17))  _C1266     1.000000000000e+00
    edgepairs_((17,_21),_(15,_17))  _C1324     1.000000000000e+00
    MARK      'MARKER'                 'INTEND'
    MARK      'MARKER'                 'INTORG'
    edgepairs_((17,_21),_(15,_18))  _C74       1.000000000000e+00
    edgepairs_((17,_21),_(15,_18))  _C101      1.000000000000e+00
    edgepairs_((17,_21),_(15,_18))  _C605      1.000000000000e+00
    edgepairs_((17,_21),_(15,_18))  _C717      1.000000000000e+00
    edgepairs_((17,_21),_(15,_18))  _C1266     1.000000000000e+00
    edgepairs_((17,_21),_(15,_18))  _C1353     1.000000000000e+00
    MARK      'MARKER'                 'INTEND'
    MARK      'MARKER'                 'INTORG'
    edgepairs_((17,_21),_(18,_19))  _C74       1.000000000000e+00
    edgepairs_((17,_21),_(18,_19))  _C102      1.000000000000e+00
    edgepairs_((17,_21),_(18,_19))  _C606      1.000000000000e+00
    edgepairs_((17,_21),_(18,_19))  _C718      1.000000000000e+00
    edgepairs_((17,_21),_(18,_19))  _C1353     1.000000000000e+00
    edgepairs_((17,_21),_(18,_19))  _C1382     1.000000000000e+00
    MARK      'MARKER'                 'INTEND'
    MARK      'MARKER'                 'INTORG'
    edgepairs_((17,_21),_(19,_21))  _C74       1.000000000000e+00
    edgepairs_((17,_21),_(19,_21))  _C104      1.000000000000e+00
    edgepairs_((17,_21),_(19,_21))  _C608      1.000000000000e+00
    edgepairs_((17,_21),_(19,_21))  _C720      1.000000000000e+00
    edgepairs_((17,_21),_(19,_21))  _C1382     1.000000000000e+00
    edgepairs_((17,_21),_(19,_21))  _C1440     1.000000000000e+00
    MARK      'MARKER'                 'INTEND'
    MARK      'MARKER'                 'INTORG'
    edgepairs_((17,_21),_(3,_4))  _C74       1.000000000000e+00
    edgepairs_((17,_21),_(3,_4))  _C83       1.000000000000e+00
    edgepairs_((17,_21),_(3,_4))  _C587      1.000000000000e+00
    edgepairs_((17,_21),_(3,_4))  _C699      1.000000000000e+00
    edgepairs_((17,_21),_(3,_4))  _C918      1.000000000000e+00
    edgepairs_((17,_21),_(3,_4))  _C947      1.000000000000e+00
    edgepairs_((17,_21),_(3,_4))  _C1533     5.000000000000e-01
    edgepairs_((17,_21),_(3,_4))  OBJ        5.000000000000e-01
    MARK      'MARKER'                 'INTEND'
    MARK      'MARKER'                 'INTORG'
    edgepairs_((17,_21),_(3,_9))  _C74       1.000000000000e+00
    edgepairs_((17,_21),_(3,_9))  _C84       1.000000000000e+00
    edgepairs_((17,_21),_(3,_9))  _C588      1.000000000000e+00
    edgepairs_((17,_21),_(3,_9))  _C700      1.000000000000e+00
    edgepairs_((17,_21),_(3,_9))  _C918      1.000000000000e+00
    edgepairs_((17,_21),_(3,_9))  _C1092     1.000000000000e+00
    edgepairs_((17,_21),_(3,_9))  _C1533     5.000000000000e-01
    edgepairs_((17,_21),_(3,_9))  OBJ        5.000000000000e-01
    MARK      'MARKER'                 'INTEND'
    MARK      'MARKER'                 'INTORG'
    edgepairs_((17,_21),_(4,_5))  _C74       1.000000000000e+00
    edgepairs_((17,_21),_(4,_5))  _C85       1.000000000000e+00
    edgepairs_((17,_21),_(4,_5))  _C589      1.000000000000e+00
    edgepairs_((17,_21),_(4,_5))  _C701      1.000000000000e+00
    edgepairs_((17,_21),_(4,_5))  _C947      1.000000000000e+00
    edgepairs_((17,_21),_(4,_5))  _C976      1.000000000000e+00
    edgepairs_((17,_21),_(4,_5))  _C1533     5.000000000000e-01
    edgepairs_((17,_21),_(4,_5))  OBJ        5.000000000000e-01
    MARK      'MARKER'                 'INTEND'
    MARK      'MARKER'                 'INTORG'
    edgepairs_((17,_21),_(5,_21))  _C74       1.000000000000e+00
    edgepairs_((17,_21),_(5,_21))  _C87       1.000000000000e+00
    edgepairs_((17,_21),_(5,_21))  _C591      1.000000000000e+00
    edgepairs_((17,_21),_(5,_21))  _C703      1.000000000000e+00
    edgepairs_((17,_21),_(5,_21))  _C976      1.000000000000e+00
    edgepairs_((17,_21),_(5,_21))  _C1440     1.000000000000e+00
    MARK      'MARKER'                 'INTEND'
    MARK      'MARKER'                 'INTORG'
    edgepairs_((17,_21),_(5,_6))  _C74       1.000000000000e+00
    edgepairs_((17,_21),_(5,_6))  _C86       1.000000000000e+00
    edgepairs_((17,_21),_(5,_6))  _C590      1.000000000000e+00
    edgepairs_((17,_21),_(5,_6))  _C702      1.000000000000e+00
    edgepairs_((17,_21),_(5,_6))  _C976      1.000000000000e+00
    edgepairs_((17,_21),_(5,_6))  _C1005     1.000000000000e+00
    edgepairs_((17,_21),_(5,_6))  _C1533     5.000000000000e-01
    edgepairs_((17,_21),_(5,_6))  OBJ        5.000000000000e-01
    MARK      'MARKER'                 'INTEND'
    MARK      'MARKER'                 'INTORG'
    edgepairs_((17,_21),_(6,_11))  _C74       1.000000000000e+00
    edgepairs_((17,_21),_(6,_11))  _C89       1.000000000000e+00
    edgepairs_((17,_21),_(6,_11))  _C593      1.000000000000e+00
    edgepairs_((17,_21),_(6,_11))  _C705      1.000000000000e+00
    edgepairs_((17,_21),_(6,_11))  _C1005     1.000000000000e+00
    edgepairs_((17,_21),_(6,_11))  _C1150     1.000000000000e+00
    MARK      'MARKER'                 'INTEND'
    MARK      'MARKER'                 'INTORG'
    edgepairs_((17,_21),_(6,_7))  _C74       1.000000000000e+00
    edgepairs_((17,_21),_(6,_7))  _C88       1.000000000000e+00
    edgepairs_((17,_21),_(6,_7))  _C592      1.000000000000e+00
    edgepairs_((17,_21),_(6,_7))  _C704      1.000000000000e+00
    edgepairs_((17,_21),_(6,_7))  _C1005     1.000000000000e+00
    edgepairs_((17,_21),_(6,_7))  _C1034     1.000000000000e+00
    edgepairs_((17,_21),_(6,_7))  _C1533     5.000000000000e-01
    edgepairs_((17,_21),_(6,_7))  OBJ        5.000000000000e-01
    MARK      'MARKER'                 'INTEND'
    MARK      'MARKER'                 'INTORG'
    edgepairs_((17,_21),_(7,_9))  _C74       1.000000000000e+00
    edgepairs_((17,_21),_(7,_9))  _C91       1.000000000000e+00
    edgepairs_((17,_21),_(7,_9))  _C595      1.000000000000e+00
    edgepairs_((17,_21),_(7,_9))  _C707      1.000000000000e+00
    edgepairs_((17,_21),_(7,_9))  _C1034     1.000000000000e+00
    edgepairs_((17,_21),_(7,_9))  _C1092     1.000000000000e+00
    edgepairs_((17,_21),_(7,_9))  _C1533     5.000000000000e-01
    edgepairs_((17,_21),_(7,_9))  OBJ        5.000000000000e-01
    MARK      'MARKER'                 'INTEND'
    MARK      'MARKER'                 'INTORG'
    edgepairs_((17,_21),__1)  _C74       1.000000000000e+00
    edgepairs_((17,_21),__1)  _C1533     1.000000000000e+00
    edgepairs_((17,_21),__1)  OBJ        1.000000000000e+00
    MARK      'MARKER'                 'INTEND'
    MARK      'MARKER'                 'INTORG'
    edgepairs_((18,_19),_(19,_20))  _C75       1.000000000000e+00
    edgepairs_((18,_19),_(19,_20))  _C103      1.000000000000e+00
    edgepairs_((18,_19),_(19,_20))  _C635      1.000000000000e+00
    edgepairs_((18,_19),_(19,_20))  _C663      1.000000000000e+00
    edgepairs_((18,_19),_(19,_20))  _C1383     1.000000000000e+00
    edgepairs_((18,_19),_(19,_20))  _C1412     1.000000000000e+00
    MARK      'MARKER'                 'INTEND'
    MARK      'MARKER'                 'INTORG'
    edgepairs_((18,_19),_(21,_22))  _C75       1.000000000000e+00
    edgepairs_((18,_19),_(21,_22))  _C105      1.000000000000e+00
    edgepairs_((18,_19),_(21,_22))  _C637      1.000000000000e+00
    edgepairs_((18,_19),_(21,_22))  _C665      1.000000000000e+00
    edgepairs_((18,_19),_(21,_22))  _C1441     1.000000000000e+00
    edgepairs_((18,_19),_(21,_22))  _C1470     1.000000000000e+00
    MARK      'MARKER'                 'INTEND'
    MARK      'MARKER'                 'INTORG'
    edgepairs_((18,_19),_(22,_23))  _C75       1.000000000000e+00
    edgepairs_((18,_19),_(22,_23))  _C106      1.000000000000e+00
    edgepairs_((18,_19),_(22,_23))  _C638      1.000000000000e+00
    edgepairs_((18,_19),_(22,_23))  _C666      1.000000000000e+00
    edgepairs_((18,_19),_(22,_23))  _C1470     1.000000000000e+00
    edgepairs_((18,_19),_(22,_23))  _C1499     1.000000000000e+00
    MARK      'MARKER'                 'INTEND'
    MARK      'MARKER'                 'INTORG'
    edgepairs_((18,_19),_(23,_24))  _C75       1.000000000000e+00
    edgepairs_((18,_19),_(23,_24))  _C107      1.000000000000e+00
    edgepairs_((18,_19),_(23,_24))  _C639      1.000000000000e+00
    edgepairs_((18,_19),_(23,_24))  _C667      1.000000000000e+00
    edgepairs_((18,_19),_(23,_24))  _C1499     1.000000000000e+00
    edgepairs_((18,_19),_(23,_24))  _C1528     1.000000000000e+00
    edgepairs_((18,_19),_(23,_24))  _C1533     1.000000000000e+00
    edgepairs_((18,_19),_(23,_24))  OBJ        1.000000000000e+00
    MARK      'MARKER'                 'INTEND'
    MARK      'MARKER'                 'INTORG'
    edgepairs_((18,_19),_(7,_8))  _C75       1.000000000000e+00
    edgepairs_((18,_19),_(7,_8))  _C90       1.000000000000e+00
    edgepairs_((18,_19),_(7,_8))  _C622      1.000000000000e+00
    edgepairs_((18,_19),_(7,_8))  _C650      1.000000000000e+00
    edgepairs_((18,_19),_(7,_8))  _C1035     1.000000000000e+00
    edgepairs_((18,_19),_(7,_8))  _C1064     1.000000000000e+00
    MARK      'MARKER'                 'INTEND'
    MARK      'MARKER'                 'INTORG'
    edgepairs_((18,_19),_(9,_10))  _C75       1.000000000000e+00
    edgepairs_((18,_19),_(9,_10))  _C92       1.000000000000e+00
    edgepairs_((18,_19),_(9,_10))  _C624      1.000000000000e+00
    edgepairs_((18,_19),_(9,_10))  _C652      1.000000000000e+00
    edgepairs_((18,_19),_(9,_10))  _C1093     1.000000000000e+00
    edgepairs_((18,_19),_(9,_10))  _C1122     1.000000000000e+00
    MARK      'MARKER'                 'INTEND'
    MARK      'MARKER'                 'INTORG'
    edgepairs_((18,_19),__1)  _C75       1.000000000000e+00
    edgepairs_((18,_19),__1)  _C1533     1.000000000000e+00
    edgepairs_((18,_19),__1)  OBJ        1.000000000000e+00
    MARK      'MARKER'                 'INTEND'
    MARK      'MARKER'                 'INTORG'
    edgepairs_((19,_20),_(19,_20))  _C76       1.000000000000e+00
    edgepairs_((19,_20),_(19,_20))  _C103      1.000000000000e+00
    edgepairs_((19,_20),_(19,_20))  _C663      1.000000000000e+00
    edgepairs_((19,_20),_(19,_20))  _C691      1.000000000000e+00
    edgepairs_((19,_20),_(19,_20))  _C1384     1.000000000000e+00
    edgepairs_((19,_20),_(19,_20))  _C1413     1.000000000000e+00
    edgepairs_((19,_20),_(19,_20))  _C1533     1.000000000000e+00
    edgepairs_((19,_20),_(19,_20))  OBJ        1.000000000000e+00
    MARK      'MARKER'                 'INTEND'
    MARK      'MARKER'                 'INTORG'
    edgepairs_((19,_20),_(21,_22))  _C76       1.000000000000e+00
    edgepairs_((19,_20),_(21,_22))  _C105      1.000000000000e+00
    edgepairs_((19,_20),_(21,_22))  _C665      1.000000000000e+00
    edgepairs_((19,_20),_(21,_22))  _C693      1.000000000000e+00
    edgepairs_((19,_20),_(21,_22))  _C1442     1.000000000000e+00
    edgepairs_((19,_20),_(21,_22))  _C1471     1.000000000000e+00
    edgepairs_((19,_20),_(21,_22))  _C1533     1.000000000000e+00
    edgepairs_((19,_20),_(21,_22))  OBJ        1.000000000000e+00
    MARK      'MARKER'                 'INTEND'
    MARK      'MARKER'                 'INTORG'
    edgepairs_((19,_20),_(22,_23))  _C76       1.000000000000e+00
    edgepairs_((19,_20),_(22,_23))  _C106      1.000000000000e+00
    edgepairs_((19,_20),_(22,_23))  _C666      1.000000000000e+00
    edgepairs_((19,_20),_(22,_23))  _C694      1.000000000000e+00
    edgepairs_((19,_20),_(22,_23))  _C1471     1.000000000000e+00
    edgepairs_((19,_20),_(22,_23))  _C1500     1.000000000000e+00
    edgepairs_((19,_20),_(22,_23))  _C1533     1.000000000000e+00
    edgepairs_((19,_20),_(22,_23))  OBJ        1.000000000000e+00
    MARK      'MARKER'                 'INTEND'
    MARK      'MARKER'                 'INTORG'
    edgepairs_((19,_20),_(23,_24))  _C76       1.000000000000e+00
    edgepairs_((19,_20),_(23,_24))  _C107      1.000000000000e+00
    edgepairs_((19,_20),_(23,_24))  _C667      1.000000000000e+00
    edgepairs_((19,_20),_(23,_24))  _C695      1.000000000000e+00
    edgepairs_((19,_20),_(23,_24))  _C1500     1.000000000000e+00
    edgepairs_((19,_20),_(23,_24))  _C1529     1.000000000000e+00
    MARK      'MARKER'                 'INTEND'
    MARK      'MARKER'                 'INTORG'
    edgepairs_((19,_20),_(7,_8))  _C76       1.000000000000e+00
    edgepairs_((19,_20),_(7,_8))  _C90       1.000000000000e+00
    edgepairs_((19,_20),_(7,_8))  _C650      1.000000000000e+00
    edgepairs_((19,_20),_(7,_8))  _C678      1.000000000000e+00
    edgepairs_((19,_20),_(7,_8))  _C1036     1.000000000000e+00
    edgepairs_((19,_20),_(7,_8))  _C1065     1.000000000000e+00
    edgepairs_((19,_20),_(7,_8))  _C1533     1.000000000000e+00
    edgepairs_((19,_20),_(7,_8))  OBJ        1.000000000000e+00
    MARK      'MARKER'                 'INTEND'
    MARK      'MARKER'                 'INTORG'
    edgepairs_((19,_20),_(9,_10))  _C76       1.000000000000e+00
    edgepairs_((19,_20),_(9,_10))  _C92       1.000000000000e+00
    edgepairs_((19,_20),_(9,_10))  _C652      1.000000000000e+00
    edgepairs_((19,_20),_(9,_10))  _C680      1.000000000000e+00
    edgepairs_((19,_20),_(9,_10))  _C1094     1.000000000000e+00
    edgepairs_((19,_20),_(9,_10))  _C1123     1.000000000000e+00
    edgepairs_((19,_20),_(9,_10))  _C1533     1.000000000000e+00
    edgepairs_((19,_20),_(9,_10))  OBJ        1.000000000000e+00
    MARK      'MARKER'                 'INTEND'
    MARK      'MARKER'                 'INTORG'
    edgepairs_((19,_20),__1)  _C76       1.000000000000e+00
    edgepairs_((19,_20),__1)  _C1533     2.000000000000e+00
    edgepairs_((19,_20),__1)  OBJ        2.000000000000e+00
    MARK      'MARKER'                 'INTEND'
    MARK      'MARKER'                 'INTORG'
    edgepairs_((2,_17),_(0,_1))  _C56       1.000000000000e+00
    edgepairs_((2,_17),_(0,_1))  _C80       1.000000000000e+00
    edgepairs_((2,_17),_(0,_1))  _C164      1.000000000000e+00
    edgepairs_((2,_17),_(0,_1))  _C584      1.000000000000e+00
    edgepairs_((2,_17),_(0,_1))  _C813      1.000000000000e+00
    edgepairs_((2,_17),_(0,_1))  _C842      1.000000000000e+00
    MARK      'MARKER'                 'INTEND'
    MARK      'MARKER'                 'INTORG'
    edgepairs_((2,_17),_(1,_2))  _C56       1.000000000000e+00
    edgepairs_((2,_17),_(1,_2))  _C81       1.000000000000e+00
    edgepairs_((2,_17),_(1,_2))  _C165      1.000000000000e+00
    edgepairs_((2,_17),_(1,_2))  _C585      1.000000000000e+00
    edgepairs_((2,_17),_(1,_2))  _C842      1.000000000000e+00
    edgepairs_((2,_17),_(1,_2))  _C871      1.000000000000e+00
    MARK      'MARKER'                 'INTEND'
    MARK      'MARKER'                 'INTORG'
    edgepairs_((2,_17),_(1,_3))  _C56       1.000000000000e+00
    edgepairs_((2,_17),_(1,_3))  _C82       1.000000000000e+00
    edgepairs_((2,_17),_(1,_3))  _C166      1.000000000000e+00
    edgepairs_((2,_17),_(1,_3))  _C586      1.000000000000e+00
    edgepairs_((2,_17),_(1,_3))  _C842      1.000000000000e+00
    edgepairs_((2,_17),_(1,_3))  _C900      1.000000000000e+00
    MARK      'MARKER'                 'INTEND'
    MARK      'MARKER'                 'INTORG'
    edgepairs_((2,_17),_(11,_12))  _C56       1.000000000000e+00
    edgepairs_((2,_17),_(11,_12))  _C93       1.000000000000e+00
    edgepairs_((2,_17),_(11,_12))  _C177      1.000000000000e+00
    edgepairs_((2,_17),_(11,_12))  _C597      1.000000000000e+00
    edgepairs_((2,_17),_(11,_12))  _C1132     1.000000000000e+00
    edgepairs_((2,_17),_(11,_12))  _C1161     1.000000000000e+00
    MARK      'MARKER'                 'INTEND'
    MARK      'MARKER'                 'INTORG'
    edgepairs_((2,_17),_(11,_18))  _C56       1.000000000000e+00
    edgepairs_((2,_17),_(11,_18))  _C94       1.000000000000e+00
    edgepairs_((2,_17),_(11,_18))  _C178      1.000000000000e+00
    edgepairs_((2,_17),_(11,_18))  _C598      1.000000000000e+00
    edgepairs_((2,_17),_(11,_18))  _C1132     1.000000000000e+00
    edgepairs_((2,_17),_(11,_18))  _C1335     1.000000000000e+00
    MARK      'MARKER'                 'INTEND'
    MARK      'MARKER'                 'INTORG'
    edgepairs_((2,_17),_(11,_23))  _C56       1.000000000000e+00
    edgepairs_((2,_17),_(11,_23))  _C95       1.000000000000e+00
    edgepairs_((2,_17),_(11,_23))  _C179      1.000000000000e+00
    edgepairs_((2,_17),_(11,_23))  _C599      1.000000000000e+00
    edgepairs_((2,_17),_(11,_23))  _C1132     1.000000000000e+00
    edgepairs_((2,_17),_(11,_23))  _C1480     1.000000000000e+00
    MARK      'MARKER'                 'INTEND'
    MARK      'MARKER'                 'INTORG'
    edgepairs_((2,_17),_(12,_13))  _C56       1.000000000000e+00
    edgepairs_((2,_17),_(12,_13))  _C96       1.000000000000e+00
    edgepairs_((2,_17),_(12,_13))  _C180      1.000000000000e+00
    edgepairs_((2,_17),_(12,_13))  _C600      1.000000000000e+00
    edgepairs_((2,_17),_(12,_13))  _C1161     1.000000000000e+00
    edgepairs_((2,_17),_(12,_13))  _C1190     1.000000000000e+00
    MARK      'MARKER'                 'INTEND'
    MARK      'MARKER'                 'INTORG'
    edgepairs_((2,_17),_(13,_14))  _C56       1.000000000000e+00
    edgepairs_((2,_17),_(13,_14))  _C97       1.000000000000e+00
    edgepairs_((2,_17),_(13,_14))  _C181      1.000000000000e+00
    edgepairs_((2,_17),_(13,_14))  _C601      1.000000000000e+00
    edgepairs_((2,_17),_(13,_14))  _C1190     1.000000000000e+00
    edgepairs_((2,_17),_(13,_14))  _C1219     1.000000000000e+00
    MARK      'MARKER'                 'INTEND'
    MARK      'MARKER'                 'INTORG'
    edgepairs_((2,_17),_(14,_15))  _C56       1.000000000000e+00
    edgepairs_((2,_17),_(14,_15))  _C98       1.000000000000e+00
    edgepairs_((2,_17),_(14,_15))  _C182      1.000000000000e+00
    edgepairs_((2,_17),_(14,_15))  _C602      1.000000000000e+00
    edgepairs_((2,_17),_(14,_15))  _C1219     1.000000000000e+00
    edgepairs_((2,_17),_(14,_15))  _C1248     1.000000000000e+00
    MARK      'MARKER'                 'INTEND'
    MARK      'MARKER'                 'INTORG'
    edgepairs_((2,_17),_(15,_16))  _C56       1.000000000000e+00
    edgepairs_((2,_17),_(15,_16))  _C99       1.000000000000e+00
    edgepairs_((2,_17),_(15,_16))  _C183      1.000000000000e+00
    edgepairs_((2,_17),_(15,_16))  _C603      1.000000000000e+00
    edgepairs_((2,_17),_(15,_16))  _C1248     1.000000000000e+00
    edgepairs_((2,_17),_(15,_16))  _C1277     1.000000000000e+00
    MARK      'MARKER'                 'INTEND'
    MARK      'MARKER'                 'INTORG'
    edgepairs_((2,_17),_(15,_17))  _C56       1.000000000000e+00
    edgepairs_((2,_17),_(15,_17))  _C100      1.000000000000e+00
    edgepairs_((2,_17),_(15,_17))  _C184      1.000000000000e+00
    edgepairs_((2,_17),_(15,_17))  _C604      1.000000000000e+00
    edgepairs_((2,_17),_(15,_17))  _C1248     1.000000000000e+00
    edgepairs_((2,_17),_(15,_17))  _C1306     1.000000000000e+00
    MARK      'MARKER'                 'INTEND'
    MARK      'MARKER'                 'INTORG'
    edgepairs_((2,_17),_(15,_18))  _C56       1.000000000000e+00
    edgepairs_((2,_17),_(15,_18))  _C101      1.000000000000e+00
    edgepairs_((2,_17),_(15,_18))  _C185      1.000000000000e+00
    edgepairs_((2,_17),_(15,_18))  _C605      1.000000000000e+00
    edgepairs_((2,_17),_(15,_18))  _C1248     1.000000000000e+00
    edgepairs_((2,_17),_(15,_18))  _C1335     1.000000000000e+00
    MARK      'MARKER'                 'INTEND'
    MARK      'MARKER'                 'INTORG'
    edgepairs_((2,_17),_(18,_19))  _C56       1.000000000000e+00
    edgepairs_((2,_17),_(18,_19))  _C102      1.000000000000e+00
    edgepairs_((2,_17),_(18,_19))  _C186      1.000000000000e+00
    edgepairs_((2,_17),_(18,_19))  _C606      1.000000000000e+00
    edgepairs_((2,_17),_(18,_19))  _C1335     1.000000000000e+00
    edgepairs_((2,_17),_(18,_19))  _C1364     1.000000000000e+00
    MARK      'MARKER'                 'INTEND'
    MARK      'MARKER'                 'INTORG'
    edgepairs_((2,_17),_(19,_21))  _C56       1.000000000000e+00
    edgepairs_((2,_17),_(19,_21))  _C104      1.000000000000e+00
    edgepairs_((2,_17),_(19,_21))  _C188      1.000000000000e+00
    edgepairs_((2,_17),_(19,_21))  _C608      1.000000000000e+00
    edgepairs_((2,_17),_(19,_21))  _C1364     1.000000000000e+00
    edgepairs_((2,_17),_(19,_21))  _C1422     1.000000000000e+00
    MARK      'MARKER'                 'INTEND'
    MARK      'MARKER'                 'INTORG'
    edgepairs_((2,_17),_(3,_4))  _C56       1.000000000000e+00
    edgepairs_((2,_17),_(3,_4))  _C83       1.000000000000e+00
    edgepairs_((2,_17),_(3,_4))  _C167      1.000000000000e+00
    edgepairs_((2,_17),_(3,_4))  _C587      1.000000000000e+00
    edgepairs_((2,_17),_(3,_4))  _C900      1.000000000000e+00
    edgepairs_((2,_17),_(3,_4))  _C929      1.000000000000e+00
    edgepairs_((2,_17),_(3,_4))  _C1533     5.000000000000e-01
    edgepairs_((2,_17),_(3,_4))  OBJ        5.000000000000e-01
    MARK      'MARKER'                 'INTEND'
    MARK      'MARKER'                 'INTORG'
    edgepairs_((2,_17),_(3,_9))  _C56       1.000000000000e+00
    edgepairs_((2,_17),_(3,_9))  _C84       1.000000000000e+00
    edgepairs_((2,_17),_(3,_9))  _C168      1.000000000000e+00
    edgepairs_((2,_17),_(3,_9))  _C588      1.000000000000e+00
    edgepairs_((2,_17),_(3,_9))  _C900      1.000000000000e+00
    edgepairs_((2,_17),_(3,_9))  _C1074     1.000000000000e+00
    edgepairs_((2,_17),_(3,_9))  _C1533     5.000000000000e-01
    edgepairs_((2,_17),_(3,_9))  OBJ        5.000000000000e-01
    MARK      'MARKER'                 'INTEND'
    MARK      'MARKER'                 'INTORG'
    edgepairs_((2,_17),_(4,_5))  _C56       1.000000000000e+00
    edgepairs_((2,_17),_(4,_5))  _C85       1.000000000000e+00
    edgepairs_((2,_17),_(4,_5))  _C169      1.000000000000e+00
    edgepairs_((2,_17),_(4,_5))  _C589      1.000000000000e+00
    edgepairs_((2,_17),_(4,_5))  _C929      1.000000000000e+00
    edgepairs_((2,_17),_(4,_5))  _C958      1.000000000000e+00
    edgepairs_((2,_17),_(4,_5))  _C1533     5.000000000000e-01
    edgepairs_((2,_17),_(4,_5))  OBJ        5.000000000000e-01
    MARK      'MARKER'                 'INTEND'
    MARK      'MARKER'                 'INTORG'
    edgepairs_((2,_17),_(5,_21))  _C56       1.000000000000e+00
    edgepairs_((2,_17),_(5,_21))  _C87       1.000000000000e+00
    edgepairs_((2,_17),_(5,_21))  _C171      1.000000000000e+00
    edgepairs_((2,_17),_(5,_21))  _C591      1.000000000000e+00
    edgepairs_((2,_17),_(5,_21))  _C958      1.000000000000e+00
    edgepairs_((2,_17),_(5,_21))  _C1422     1.000000000000e+00
    MARK      'MARKER'                 'INTEND'
    MARK      'MARKER'                 'INTORG'
    edgepairs_((2,_17),_(5,_6))  _C56       1.000000000000e+00
    edgepairs_((2,_17),_(5,_6))  _C86       1.000000000000e+00
    edgepairs_((2,_17),_(5,_6))  _C170      1.000000000000e+00
    edgepairs_((2,_17),_(5,_6))  _C590      1.000000000000e+00
    edgepairs_((2,_17),_(5,_6))  _C958      1.000000000000e+00
    edgepairs_((2,_17),_(5,_6))  _C987      1.000000000000e+00
    edgepairs_((2,_17),_(5,_6))  _C1533     5.000000000000e-01
    edgepairs_((2,_17),_(5,_6))  OBJ        5.000000000000e-01
    MARK      'MARKER'                 'INTEND'
    MARK      'MARKER'                 'INTORG'
    edgepairs_((2,_17),_(6,_11))  _C56       1.000000000000e+00
    edgepairs_((2,_17),_(6,_11))  _C89       1.000000000000e+00
    edgepairs_((2,_17),_(6,_11))  _C173      1.000000000000e+00
    edgepairs_((2,_17),_(6,_11))  _C593      1.000000000000e+00
    edgepairs_((2,_17),_(6,_11))  _C987      1.000000000000e+00
    edgepairs_((2,_17),_(6,_11))  _C1132     1.000000000000e+00
    MARK      'MARKER'                 'INTEND'
    MARK      'MARKER'                 'INTORG'
    edgepairs_((2,_17),_(6,_7))  _C56       1.000000000000e+00
    edgepairs_((2,_17),_(6,_7))  _C88       1.000000000000e+00
    edgepairs_((2,_17),_(6,_7))  _C172      1.000000000000e+00
    edgepairs_((2,_17),_(6,_7))  _C592      1.000000000000e+00
    edgepairs_((2,_17),_(6,_7))  _C987      1.000000000000e+00
    edgepairs_((2,_17),_(6,_7))  _C1016     1.000000000000e+00
    edgepairs_((2,_17),_(6,_7))  _C1533     5.000000000000e-01
    edgepairs_((2,_17),_(6,_7))  OBJ        5.000000000000e-01
    MARK      'MARKER'                 'INTEND'
    MARK      'MARKER'                 'INTORG'
    edgepairs_((2,_17),_(7,_9))  _C56       1.000000000000e+00
    edgepairs_((2,_17),_(7,_9))  _C91       1.000000000000e+00
    edgepairs_((2,_17),_(7,_9))  _C175      1.000000000000e+00
    edgepairs_((2,_17),_(7,_9))  _C595      1.000000000000e+00
    edgepairs_((2,_17),_(7,_9))  _C1016     1.000000000000e+00
    edgepairs_((2,_17),_(7,_9))  _C1074     1.000000000000e+00
    edgepairs_((2,_17),_(7,_9))  _C1533     5.000000000000e-01
    edgepairs_((2,_17),_(7,_9))  OBJ        5.000000000000e-01
    MARK      'MARKER'                 'INTEND'
    MARK      'MARKER'                 'INTORG'
    edgepairs_((2,_17),__1)  _C56       1.000000000000e+00
    edgepairs_((2,_17),__1)  _C1533     1.000000000000e+00
    edgepairs_((2,_17),__1)  OBJ        1.000000000000e+00
    MARK      'MARKER'                 'INTEND'
    MARK      'MARKER'                 'INTORG'
    edgepairs_((2,_3),_(0,_1))  _C55       1.000000000000e+00
    edgepairs_((2,_3),_(0,_1))  _C80       1.000000000000e+00
    edgepairs_((2,_3),_(0,_1))  _C164      1.000000000000e+00
    edgepairs_((2,_3),_(0,_1))  _C192      1.000000000000e+00
    edgepairs_((2,_3),_(0,_1))  _C812      1.000000000000e+00
    edgepairs_((2,_3),_(0,_1))  _C841      1.000000000000e+00
    MARK      'MARKER'                 'INTEND'
    MARK      'MARKER'                 'INTORG'
    edgepairs_((2,_3),_(1,_2))  _C55       1.000000000000e+00
    edgepairs_((2,_3),_(1,_2))  _C81       1.000000000000e+00
    edgepairs_((2,_3),_(1,_2))  _C165      1.000000000000e+00
    edgepairs_((2,_3),_(1,_2))  _C193      1.000000000000e+00
    edgepairs_((2,_3),_(1,_2))  _C841      1.000000000000e+00
    edgepairs_((2,_3),_(1,_2))  _C870      1.000000000000e+00
    MARK      'MARKER'                 'INTEND'
    MARK      'MARKER'                 'INTORG'
    edgepairs_((2,_3),_(1,_3))  _C55       1.000000000000e+00
    edgepairs_((2,_3),_(1,_3))  _C82       1.000000000000e+00
    edgepairs_((2,_3),_(1,_3))  _C166      1.000000000000e+00
    edgepairs_((2,_3),_(1,_3))  _C194      1.000000000000e+00
    edgepairs_((2,_3),_(1,_3))  _C841      1.000000000000e+00
    edgepairs_((2,_3),_(1,_3))  _C899      1.000000000000e+00
    MARK      'MARKER'                 'INTEND'
    MARK      'MARKER'                 'INTORG'
    edgepairs_((2,_3),_(11,_12))  _C55       1.000000000000e+00
    edgepairs_((2,_3),_(11,_12))  _C93       1.000000000000e+00
    edgepairs_((2,_3),_(11,_12))  _C177      1.000000000000e+00
    edgepairs_((2,_3),_(11,_12))  _C205      1.000000000000e+00
    edgepairs_((2,_3),_(11,_12))  _C1131     1.000000000000e+00
    edgepairs_((2,_3),_(11,_12))  _C1160     1.000000000000e+00
    MARK      'MARKER'                 'INTEND'
    MARK      'MARKER'                 'INTORG'
    edgepairs_((2,_3),_(11,_18))  _C55       1.000000000000e+00
    edgepairs_((2,_3),_(11,_18))  _C94       1.000000000000e+00
    edgepairs_((2,_3),_(11,_18))  _C178      1.000000000000e+00
    edgepairs_((2,_3),_(11,_18))  _C206      1.000000000000e+00
    edgepairs_((2,_3),_(11,_18))  _C1131     1.000000000000e+00
    edgepairs_((2,_3),_(11,_18))  _C1334     1.000000000000e+00
    MARK      'MARKER'                 'INTEND'
    MARK      'MARKER'                 'INTORG'
    edgepairs_((2,_3),_(11,_23))  _C55       1.000000000000e+00
    edgepairs_((2,_3),_(11,_23))  _C95       1.000000000000e+00
    edgepairs_((2,_3),_(11,_23))  _C179      1.000000000000e+00
    edgepairs_((2,_3),_(11,_23))  _C207      1.000000000000e+00
    edgepairs_((2,_3),_(11,_23))  _C1131     1.000000000000e+00
    edgepairs_((2,_3),_(11,_23))  _C1479     1.000000000000e+00
    MARK      'MARKER'                 'INTEND'
    MARK      'MARKER'                 'INTORG'
    edgepairs_((2,_3),_(12,_13))  _C55       1.000000000000e+00
    edgepairs_((2,_3),_(12,_13))  _C96       1.000000000000e+00
    edgepairs_((2,_3),_(12,_13))  _C180      1.000000000000e+00
    edgepairs_((2,_3),_(12,_13))  _C208      1.000000000000e+00
    edgepairs_((2,_3),_(12,_13))  _C1160     1.000000000000e+00
    edgepairs_((2,_3),_(12,_13))  _C1189     1.000000000000e+00
    MARK      'MARKER'                 'INTEND'
    MARK      'MARKER'                 'INTORG'
    edgepairs_((2,_3),_(13,_14))  _C55       1.000000000000e+00
    edgepairs_((2,_3),_(13,_14))  _C97       1.000000000000e+00
    edgepairs_((2,_3),_(13,_14))  _C181      1.000000000000e+00
    edgepairs_((2,_3),_(13,_14))  _C209      1.000000000000e+00
    edgepairs_((2,_3),_(13,_14))  _C1189     1.000000000000e+00
    edgepairs_((2,_3),_(13,_14))  _C1218     1.000000000000e+00
    MARK      'MARKER'                 'INTEND'
    MARK      'MARKER'                 'INTORG'
    edgepairs_((2,_3),_(14,_15))  _C55       1.000000000000e+00
    edgepairs_((2,_3),_(14,_15))  _C98       1.000000000000e+00
    edgepairs_((2,_3),_(14,_15))  _C182      1.000000000000e+00
    edgepairs_((2,_3),_(14,_15))  _C210      1.000000000000e+00
    edgepairs_((2,_3),_(14,_15))  _C1218     1.000000000000e+00
    edgepairs_((2,_3),_(14,_15))  _C1247     1.000000000000e+00
    MARK      'MARKER'                 'INTEND'
    MARK      'MARKER'                 'INTORG'
    edgepairs_((2,_3),_(15,_16))  _C55       1.000000000000e+00
    edgepairs_((2,_3),_(15,_16))  _C99       1.000000000000e+00
    edgepairs_((2,_3),_(15,_16))  _C183      1.000000000000e+00
    edgepairs_((2,_3),_(15,_16))  _C211      1.000000000000e+00
    edgepairs_((2,_3),_(15,_16))  _C1247     1.000000000000e+00
    edgepairs_((2,_3),_(15,_16))  _C1276     1.000000000000e+00
    MARK      'MARKER'                 'INTEND'
    MARK      'MARKER'                 'INTORG'
    edgepairs_((2,_3),_(15,_17))  _C55       1.000000000000e+00
    edgepairs_((2,_3),_(15,_17))  _C100      1.000000000000e+00
    edgepairs_((2,_3),_(15,_17))  _C184      1.000000000000e+00
    edgepairs_((2,_3),_(15,_17))  _C212      1.000000000000e+00
    edgepairs_((2,_3),_(15,_17))  _C1247     1.000000000000e+00
    edgepairs_((2,_3),_(15,_17))  _C1305     1.000000000000e+00
    MARK      'MARKER'                 'INTEND'
    MARK      'MARKER'                 'INTORG'
    edgepairs_((2,_3),_(15,_18))  _C55       1.000000000000e+00
    edgepairs_((2,_3),_(15,_18))  _C101      1.000000000000e+00
    edgepairs_((2,_3),_(15,_18))  _C185      1.000000000000e+00
    edgepairs_((2,_3),_(15,_18))  _C213      1.000000000000e+00
    edgepairs_((2,_3),_(15,_18))  _C1247     1.000000000000e+00
    edgepairs_((2,_3),_(15,_18))  _C1334     1.000000000000e+00
    MARK      'MARKER'                 'INTEND'
    MARK      'MARKER'                 'INTORG'
    edgepairs_((2,_3),_(18,_19))  _C55       1.000000000000e+00
    edgepairs_((2,_3),_(18,_19))  _C102      1.000000000000e+00
    edgepairs_((2,_3),_(18,_19))  _C186      1.000000000000e+00
    edgepairs_((2,_3),_(18,_19))  _C214      1.000000000000e+00
    edgepairs_((2,_3),_(18,_19))  _C1334     1.000000000000e+00
    edgepairs_((2,_3),_(18,_19))  _C1363     1.000000000000e+00
    MARK      'MARKER'                 'INTEND'
    MARK      'MARKER'                 'INTORG'
    edgepairs_((2,_3),_(19,_21))  _C55       1.000000000000e+00
    edgepairs_((2,_3),_(19,_21))  _C104      1.000000000000e+00
    edgepairs_((2,_3),_(19,_21))  _C188      1.000000000000e+00
    edgepairs_((2,_3),_(19,_21))  _C216      1.000000000000e+00
    edgepairs_((2,_3),_(19,_21))  _C1363     1.000000000000e+00
    edgepairs_((2,_3),_(19,_21))  _C1421     1.000000000000e+00
    MARK      'MARKER'                 'INTEND'
    MARK      'MARKER'                 'INTORG'
    edgepairs_((2,_3),_(3,_4))  _C55       1.000000000000e+00
    edgepairs_((2,_3),_(3,_4))  _C83       1.000000000000e+00
    edgepairs_((2,_3),_(3,_4))  _C167      1.000000000000e+00
    edgepairs_((2,_3),_(3,_4))  _C195      1.000000000000e+00
    edgepairs_((2,_3),_(3,_4))  _C899      1.000000000000e+00
    edgepairs_((2,_3),_(3,_4))  _C928      1.000000000000e+00
    edgepairs_((2,_3),_(3,_4))  _C1533     5.000000000000e-01
    edgepairs_((2,_3),_(3,_4))  OBJ        5.000000000000e-01
    MARK      'MARKER'                 'INTEND'
    MARK      'MARKER'                 'INTORG'
    edgepairs_((2,_3),_(3,_9))  _C55       1.000000000000e+00
    edgepairs_((2,_3),_(3,_9))  _C84       1.000000000000e+00
    edgepairs_((2,_3),_(3,_9))  _C168      1.000000000000e+00
    edgepairs_((2,_3),_(3,_9))  _C196      1.000000000000e+00
    edgepairs_((2,_3),_(3,_9))  _C899      1.000000000000e+00
    edgepairs_((2,_3),_(3,_9))  _C1073     1.000000000000e+00
    edgepairs_((2,_3),_(3,_9))  _C1533     5.000000000000e-01
    edgepairs_((2,_3),_(3,_9))  OBJ        5.000000000000e-01
    MARK      'MARKER'                 'INTEND'
    MARK      'MARKER'                 'INTORG'
    edgepairs_((2,_3),_(4,_5))  _C55       1.000000000000e+00
    edgepairs_((2,_3),_(4,_5))  _C85       1.000000000000e+00
    edgepairs_((2,_3),_(4,_5))  _C169      1.000000000000e+00
    edgepairs_((2,_3),_(4,_5))  _C197      1.000000000000e+00
    edgepairs_((2,_3),_(4,_5))  _C928      1.000000000000e+00
    edgepairs_((2,_3),_(4,_5))  _C957      1.000000000000e+00
    edgepairs_((2,_3),_(4,_5))  _C1533     5.000000000000e-01
    edgepairs_((2,_3),_(4,_5))  OBJ        5.000000000000e-01
    MARK      'MARKER'                 'INTEND'
    MARK      'MARKER'                 'INTORG'
    edgepairs_((2,_3),_(5,_21))  _C55       1.000000000000e+00
    edgepairs_((2,_3),_(5,_21))  _C87       1.000000000000e+00
    edgepairs_((2,_3),_(5,_21))  _C171      1.000000000000e+00
    edgepairs_((2,_3),_(5,_21))  _C199      1.000000000000e+00
    edgepairs_((2,_3),_(5,_21))  _C957      1.000000000000e+00
    edgepairs_((2,_3),_(5,_21))  _C1421     1.000000000000e+00
    MARK      'MARKER'                 'INTEND'
    MARK      'MARKER'                 'INTORG'
    edgepairs_((2,_3),_(5,_6))  _C55       1.000000000000e+00
    edgepairs_((2,_3),_(5,_6))  _C86       1.000000000000e+00
    edgepairs_((2,_3),_(5,_6))  _C170      1.000000000000e+00
    edgepairs_((2,_3),_(5,_6))  _C198      1.000000000000e+00
    edgepairs_((2,_3),_(5,_6))  _C957      1.000000000000e+00
    edgepairs_((2,_3),_(5,_6))  _C986      1.000000000000e+00
    edgepairs_((2,_3),_(5,_6))  _C1533     5.000000000000e-01
    edgepairs_((2,_3),_(5,_6))  OBJ        5.000000000000e-01
    MARK      'MARKER'                 'INTEND'
    MARK      'MARKER'                 'INTORG'
    edgepairs_((2,_3),_(6,_11))  _C55       1.000000000000e+00
    edgepairs_((2,_3),_(6,_11))  _C89       1.000000000000e+00
    edgepairs_((2,_3),_(6,_11))  _C173      1.000000000000e+00
    edgepairs_((2,_3),_(6,_11))  _C201      1.000000000000e+00
    edgepairs_((2,_3),_(6,_11))  _C986      1.000000000000e+00
    edgepairs_((2,_3),_(6,_11))  _C1131     1.000000000000e+00
    MARK      'MARKER'                 'INTEND'
    MARK      'MARKER'                 'INTORG'
    edgepairs_((2,_3),_(6,_7))  _C55       1.000000000000e+00
    edgepairs_((2,_3),_(6,_7))  _C88       1.000000000000e+00
    edgepairs_((2,_3),_(6,_7))  _C172      1.000000000000e+00
    edgepairs_((2,_3),_(6,_7))  _C200      1.000000000000e+00
    edgepairs_((2,_3),_(6,_7))  _C986      1.000000000000e+00
    edgepairs_((2,_3),_(6,_7))  _C1015     1.000000000000e+00
    edgepairs_((2,_3),_(6,_7))  _C1533     5.000000000000e-01
    edgepairs_((2,_3),_(6,_7))  OBJ        5.000000000000e-01
    MARK      'MARKER'                 'INTEND'
    MARK      'MARKER'                 'INTORG'
    edgepairs_((2,_3),_(7,_9))  _C55       1.000000000000e+00
    edgepairs_((2,_3),_(7,_9))  _C91       1.000000000000e+00
    edgepairs_((2,_3),_(7,_9))  _C175      1.000000000000e+00
    edgepairs_((2,_3),_(7,_9))  _C203      1.000000000000e+00
    edgepairs_((2,_3),_(7,_9))  _C1015     1.000000000000e+00
    edgepairs_((2,_3),_(7,_9))  _C1073     1.000000000000e+00
    edgepairs_((2,_3),_(7,_9))  _C1533     5.000000000000e-01
    edgepairs_((2,_3),_(7,_9))  OBJ        5.000000000000e-01
    MARK      'MARKER'                 'INTEND'
    MARK      'MARKER'                 'INTORG'
    edgepairs_((2,_3),__1)  _C55       1.000000000000e+00
    edgepairs_((2,_3),__1)  _C1533     1.000000000000e+00
    edgepairs_((2,_3),__1)  OBJ        1.000000000000e+00
    MARK      'MARKER'                 'INTEND'
    MARK      'MARKER'                 'INTORG'
    edgepairs_((21,_22),_(0,_1))  _C77       1.000000000000e+00
    edgepairs_((21,_22),_(0,_1))  _C80       1.000000000000e+00
    edgepairs_((21,_22),_(0,_1))  _C696      1.000000000000e+00
    edgepairs_((21,_22),_(0,_1))  _C724      1.000000000000e+00
    edgepairs_((21,_22),_(0,_1))  _C834      1.000000000000e+00
    edgepairs_((21,_22),_(0,_1))  _C863      1.000000000000e+00
    edgepairs_((21,_22),_(0,_1))  _C1533     1.000000000000e+00
    edgepairs_((21,_22),_(0,_1))  OBJ        1.000000000000e+00
    MARK      'MARKER'                 'INTEND'
    MARK      'MARKER'                 'INTORG'
    edgepairs_((21,_22),_(1,_2))  _C77       1.000000000000e+00
    edgepairs_((21,_22),_(1,_2))  _C81       1.000000000000e+00
    edgepairs_((21,_22),_(1,_2))  _C697      1.000000000000e+00
    edgepairs_((21,_22),_(1,_2))  _C725      1.000000000000e+00
    edgepairs_((21,_22),_(1,_2))  _C863      1.000000000000e+00
    edgepairs_((21,_22),_(1,_2))  _C892      1.000000000000e+00
    edgepairs_((21,_22),_(1,_2))  _C1533     1.000000000000e+00
    edgepairs_((21,_22),_(1,_2))  OBJ        1.000000000000e+00
    MARK      'MARKER'                 'INTEND'
    MARK      'MARKER'                 'INTORG'
    edgepairs_((21,_22),_(1,_3))  _C77       1.000000000000e+00
    edgepairs_((21,_22),_(1,_3))  _C82       1.000000000000e+00
    edgepairs_((21,_22),_(1,_3))  _C698      1.000000000000e+00
    edgepairs_((21,_22),_(1,_3))  _C726      1.000000000000e+00
    edgepairs_((21,_22),_(1,_3))  _C863      1.000000000000e+00
    edgepairs_((21,_22),_(1,_3))  _C921      1.000000000000e+00
    edgepairs_((21,_22),_(1,_3))  _C1533     1.000000000000e+00
    edgepairs_((21,_22),_(1,_3))  OBJ        1.000000000000e+00
    MARK      'MARKER'                 'INTEND'
    MARK      'MARKER'                 'INTORG'
    edgepairs_((21,_22),_(11,_12))  _C77       1.000000000000e+00
    edgepairs_((21,_22),_(11,_12))  _C93       1.000000000000e+00
    edgepairs_((21,_22),_(11,_12))  _C709      1.000000000000e+00
    edgepairs_((21,_22),_(11,_12))  _C737      1.000000000000e+00
    edgepairs_((21,_22),_(11,_12))  _C1153     1.000000000000e+00
    edgepairs_((21,_22),_(11,_12))  _C1182     1.000000000000e+00
    edgepairs_((21,_22),_(11,_12))  _C1533     1.000000000000e+00
    edgepairs_((21,_22),_(11,_12))  OBJ        1.000000000000e+00
    MARK      'MARKER'                 'INTEND'
    MARK      'MARKER'                 'INTORG'
    edgepairs_((21,_22),_(11,_18))  _C77       1.000000000000e+00
    edgepairs_((21,_22),_(11,_18))  _C94       1.000000000000e+00
    edgepairs_((21,_22),_(11,_18))  _C710      1.000000000000e+00
    edgepairs_((21,_22),_(11,_18))  _C738      1.000000000000e+00
    edgepairs_((21,_22),_(11,_18))  _C1153     1.000000000000e+00
    edgepairs_((21,_22),_(11,_18))  _C1356     1.000000000000e+00
    edgepairs_((21,_22),_(11,_18))  _C1533     1.000000000000e+00
    edgepairs_((21,_22),_(11,_18))  OBJ        1.000000000000e+00
    MARK      'MARKER'                 'INTEND'
    MARK      'MARKER'                 'INTORG'
    edgepairs_((21,_22),_(11,_23))  _C77       1.000000000000e+00
    edgepairs_((21,_22),_(11,_23))  _C95       1.000000000000e+00
    edgepairs_((21,_22),_(11,_23))  _C711      1.000000000000e+00
    edgepairs_((21,_22),_(11,_23))  _C739      1.000000000000e+00
    edgepairs_((21,_22),_(11,_23))  _C1153     1.000000000000e+00
    edgepairs_((21,_22),_(11,_23))  _C1501     1.000000000000e+00
    edgepairs_((21,_22),_(11,_23))  _C1533     1.000000000000e+00
    edgepairs_((21,_22),_(11,_23))  OBJ        1.000000000000e+00
    MARK      'MARKER'                 'INTEND'
    MARK      'MARKER'                 'INTORG'
    edgepairs_((21,_22),_(12,_13))  _C77       1.000000000000e+00
    edgepairs_((21,_22),_(12,_13))  _C96       1.000000000000e+00
    edgepairs_((21,_22),_(12,_13))  _C712      1.000000000000e+00
    edgepairs_((21,_22),_(12,_13))  _C740      1.000000000000e+00
    edgepairs_((21,_22),_(12,_13))  _C1182     1.000000000000e+00
    edgepairs_((21,_22),_(12,_13))  _C1211     1.000000000000e+00
    edgepairs_((21,_22),_(12,_13))  _C1533     1.000000000000e+00
    edgepairs_((21,_22),_(12,_13))  OBJ        1.000000000000e+00
    MARK      'MARKER'                 'INTEND'
    MARK      'MARKER'                 'INTORG'
    edgepairs_((21,_22),_(13,_14))  _C77       1.000000000000e+00
    edgepairs_((21,_22),_(13,_14))  _C97       1.000000000000e+00
    edgepairs_((21,_22),_(13,_14))  _C713      1.000000000000e+00
    edgepairs_((21,_22),_(13,_14))  _C741      1.000000000000e+00
    edgepairs_((21,_22),_(13,_14))  _C1211     1.000000000000e+00
    edgepairs_((21,_22),_(13,_14))  _C1240     1.000000000000e+00
    edgepairs_((21,_22),_(13,_14))  _C1533     1.000000000000e+00
    edgepairs_((21,_22),_(13,_14))  OBJ        1.000000000000e+00
    MARK      'MARKER'                 'INTEND'
    MARK      'MARKER'                 'INTORG'
    edgepairs_((21,_22),_(14,_15))  _C77       1.000000000000e+00
    edgepairs_((21,_22),_(14,_15))  _C98       1.000000000000e+00
    edgepairs_((21,_22),_(14,_15))  _C714      1.000000000000e+00
    edgepairs_((21,_22),_(14,_15))  _C742      1.000000000000e+00
    edgepairs_((21,_22),_(14,_15))  _C1240     1.000000000000e+00
    edgepairs_((21,_22),_(14,_15))  _C1269     1.000000000000e+00
    edgepairs_((21,_22),_(14,_15))  _C1533     1.000000000000e+00
    edgepairs_((21,_22),_(14,_15))  OBJ        1.000000000000e+00
    MARK      'MARKER'                 'INTEND'
    MARK      'MARKER'                 'INTORG'
    edgepairs_((21,_22),_(15,_16))  _C77       1.000000000000e+00
    edgepairs_((21,_22),_(15,_16))  _C99       1.000000000000e+00
    edgepairs_((21,_22),_(15,_16))  _C715      1.000000000000e+00
    edgepairs_((21,_22),_(15,_16))  _C743      1.000000000000e+00
    edgepairs_((21,_22),_(15,_16))  _C1269     1.000000000000e+00
    edgepairs_((21,_22),_(15,_16))  _C1298     1.000000000000e+00
    edgepairs_((21,_22),_(15,_16))  _C1533     1.000000000000e+00
    edgepairs_((21,_22),_(15,_16))  OBJ        1.000000000000e+00
    MARK      'MARKER'                 'INTEND'
    MARK      'MARKER'                 'INTORG'
    edgepairs_((21,_22),_(15,_17))  _C77       1.000000000000e+00
    edgepairs_((21,_22),_(15,_17))  _C100      1.000000000000e+00
    edgepairs_((21,_22),_(15,_17))  _C716      1.000000000000e+00
    edgepairs_((21,_22),_(15,_17))  _C744      1.000000000000e+00
    edgepairs_((21,_22),_(15,_17))  _C1269     1.000000000000e+00
    edgepairs_((21,_22),_(15,_17))  _C1327     1.000000000000e+00
    edgepairs_((21,_22),_(15,_17))  _C1533     1.000000000000e+00
    edgepairs_((21,_22),_(15,_17))  OBJ        1.000000000000e+00
    MARK      'MARKER'                 'INTEND'
    MARK      'MARKER'                 'INTORG'
    edgepairs_((21,_22),_(15,_18))  _C77       1.000000000000e+00
    edgepairs_((21,_22),_(15,_18))  _C101      1.000000000000e+00
    edgepairs_((21,_22),_(15,_18))  _C717      1.000000000000e+00
    edgepairs_((21,_22),_(15,_18))  _C745      1.000000000000e+00
    edgepairs_((21,_22),_(15,_18))  _C1269     1.000000000000e+00
    edgepairs_((21,_22),_(15,_18))  _C1356     1.000000000000e+00
    edgepairs_((21,_22),_(15,_18))  _C1533     1.000000000000e+00
    edgepairs_((21,_22),_(15,_18))  OBJ        1.000000000000e+00
    MARK      'MARKER'                 'INTEND'
    MARK      'MARKER'                 'INTORG'
    edgepairs_((21,_22),_(18,_19))  _C77       1.000000000000e+00
    edgepairs_((21,_22),_(18,_19))  _C102      1.000000000000e+00
    edgepairs_((21,_22),_(18,_19))  _C718      1.000000000000e+00
    edgepairs_((21,_22),_(18,_19))  _C746      1.000000000000e+00
    edgepairs_((21,_22),_(18,_19))  _C1356     1.000000000000e+00
    edgepairs_((21,_22),_(18,_19))  _C1385     1.000000000000e+00
    edgepairs_((21,_22),_(18,_19))  _C1533     1.000000000000e+00
    edgepairs_((21,_22),_(18,_19))  OBJ        1.000000000000e+00
    MARK      'MARKER'                 'INTEND'
    MARK      'MARKER'                 'INTORG'
    edgepairs_((21,_22),_(19,_21))  _C77       1.000000000000e+00
    edgepairs_((21,_22),_(19,_21))  _C104      1.000000000000e+00
    edgepairs_((21,_22),_(19,_21))  _C720      1.000000000000e+00
    edgepairs_((21,_22),_(19,_21))  _C748      1.000000000000e+00
    edgepairs_((21,_22),_(19,_21))  _C1385     1.000000000000e+00
    edgepairs_((21,_22),_(19,_21))  _C1443     1.000000000000e+00
    edgepairs_((21,_22),_(19,_21))  _C1533     1.000000000000e+00
    edgepairs_((21,_22),_(19,_21))  OBJ        1.000000000000e+00
    MARK      'MARKER'                 'INTEND'
    MARK      'MARKER'                 'INTORG'
    edgepairs_((21,_22),_(3,_4))  _C77       1.000000000000e+00
    edgepairs_((21,_22),_(3,_4))  _C83       1.000000000000e+00
    edgepairs_((21,_22),_(3,_4))  _C699      1.000000000000e+00
    edgepairs_((21,_22),_(3,_4))  _C727      1.000000000000e+00
    edgepairs_((21,_22),_(3,_4))  _C921      1.000000000000e+00
    edgepairs_((21,_22),_(3,_4))  _C950      1.000000000000e+00
    edgepairs_((21,_22),_(3,_4))  _C1533     5.000000000000e-01
    edgepairs_((21,_22),_(3,_4))  OBJ        5.000000000000e-01
    MARK      'MARKER'                 'INTEND'
    MARK      'MARKER'                 'INTORG'
    edgepairs_((21,_22),_(3,_9))  _C77       1.000000000000e+00
    edgepairs_((21,_22),_(3,_9))  _C84       1.000000000000e+00
    edgepairs_((21,_22),_(3,_9))  _C700      1.000000000000e+00
    edgepairs_((21,_22),_(3,_9))  _C728      1.000000000000e+00
    edgepairs_((21,_22),_(3,_9))  _C921      1.000000000000e+00
    edgepairs_((21,_22),_(3,_9))  _C1095     1.000000000000e+00
    edgepairs_((21,_22),_(3,_9))  _C1533     5.000000000000e-01
    edgepairs_((21,_22),_(3,_9))  OBJ        5.000000000000e-01
    MARK      'MARKER'                 'INTEND'
    MARK      'MARKER'                 'INTORG'
    edgepairs_((21,_22),_(4,_5))  _C77       1.000000000000e+00
    edgepairs_((21,_22),_(4,_5))  _C85       1.000000000000e+00
    edgepairs_((21,_22),_(4,_5))  _C701      1.000000000000e+00
    edgepairs_((21,_22),_(4,_5))  _C729      1.000000000000e+00
    edgepairs_((21,_22),_(4,_5))  _C950      1.000000000000e+00
    edgepairs_((21,_22),_(4,_5))  _C979      1.000000000000e+00
    edgepairs_((21,_22),_(4,_5))  _C1533     5.000000000000e-01
    edgepairs_((21,_22),_(4,_5))  OBJ        5.000000000000e-01
    MARK      'MARKER'                 'INTEND'
    MARK      'MARKER'                 'INTORG'
    edgepairs_((21,_22),_(5,_21))  _C77       1.000000000000e+00
    edgepairs_((21,_22),_(5,_21))  _C87       1.000000000000e+00
    edgepairs_((21,_22),_(5,_21))  _C703      1.000000000000e+00
    edgepairs_((21,_22),_(5,_21))  _C731      1.000000000000e+00
    edgepairs_((21,_22),_(5,_21))  _C979      1.000000000000e+00
    edgepairs_((21,_22),_(5,_21))  _C1443     1.000000000000e+00
    edgepairs_((21,_22),_(5,_21))  _C1533     1.000000000000e+00
    edgepairs_((21,_22),_(5,_21))  OBJ        1.000000000000e+00
    MARK      'MARKER'                 'INTEND'
    MARK      'MARKER'                 'INTORG'
    edgepairs_((21,_22),_(5,_6))  _C77       1.000000000000e+00
    edgepairs_((21,_22),_(5,_6))  _C86       1.000000000000e+00
    edgepairs_((21,_22),_(5,_6))  _C702      1.000000000000e+00
    edgepairs_((21,_22),_(5,_6))  _C730      1.000000000000e+00
    edgepairs_((21,_22),_(5,_6))  _C979      1.000000000000e+00
    edgepairs_((21,_22),_(5,_6))  _C1008     1.000000000000e+00
    edgepairs_((21,_22),_(5,_6))  _C1533     5.000000000000e-01
    edgepairs_((21,_22),_(5,_6))  OBJ        5.000000000000e-01
    MARK      'MARKER'                 'INTEND'
    MARK      'MARKER'                 'INTORG'
    edgepairs_((21,_22),_(6,_11))  _C77       1.000000000000e+00
    edgepairs_((21,_22),_(6,_11))  _C89       1.000000000000e+00
    edgepairs_((21,_22),_(6,_11))  _C705      1.000000000000e+00
    edgepairs_((21,_22),_(6,_11))  _C733      1.000000000000e+00
    edgepairs_((21,_22),_(6,_11))  _C1008     1.000000000000e+00
    edgepairs_((21,_22),_(6,_11))  _C1153     1.000000000000e+00
    edgepairs_((21,_22),_(6,_11))  _C1533     1.000000000000e+00
    edgepairs_((21,_22),_(6,_11))  OBJ        1.000000000000e+00
    MARK      'MARKER'                 'INTEND'
    MARK      'MARKER'                 'INTORG'
    edgepairs_((21,_22),_(6,_7))  _C77       1.000000000000e+00
    edgepairs_((21,_22),_(6,_7))  _C88       1.000000000000e+00
    edgepairs_((21,_22),_(6,_7))  _C704      1.000000000000e+00
    edgepairs_((21,_22),_(6,_7))  _C732      1.000000000000e+00
    edgepairs_((21,_22),_(6,_7))  _C1008     1.000000000000e+00
    edgepairs_((21,_22),_(6,_7))  _C1037     1.000000000000e+00
    edgepairs_((21,_22),_(6,_7))  _C1533     5.000000000000e-01
    edgepairs_((21,_22),_(6,_7))  OBJ        5.000000000000e-01
    MARK      'MARKER'                 'INTEND'
    MARK      'MARKER'                 'INTORG'
    edgepairs_((21,_22),_(7,_9))  _C77       1.000000000000e+00
    edgepairs_((21,_22),_(7,_9))  _C91       1.000000000000e+00
    edgepairs_((21,_22),_(7,_9))  _C707      1.000000000000e+00
    edgepairs_((21,_22),_(7,_9))  _C735      1.000000000000e+00
    edgepairs_((21,_22),_(7,_9))  _C1037     1.000000000000e+00
    edgepairs_((21,_22),_(7,_9))  _C1095     1.000000000000e+00
    edgepairs_((21,_22),_(7,_9))  _C1533     5.000000000000e-01
    edgepairs_((21,_22),_(7,_9))  OBJ        5.000000000000e-01
    MARK      'MARKER'                 'INTEND'
    MARK      'MARKER'                 'INTORG'
    edgepairs_((21,_22),__1)  _C77       1.000000000000e+00
    edgepairs_((21,_22),__1)  _C1533     2.000000000000e+00
    edgepairs_((21,_22),__1)  OBJ        2.000000000000e+00
    MARK      'MARKER'                 'INTEND'
    MARK      'MARKER'                 'INTORG'
    edgepairs_((22,_23),_(0,_1))  _C78       1.000000000000e+00
    edgepairs_((22,_23),_(0,_1))  _C80       1.000000000000e+00
    edgepairs_((22,_23),_(0,_1))  _C724      1.000000000000e+00
    edgepairs_((22,_23),_(0,_1))  _C752      1.000000000000e+00
    edgepairs_((22,_23),_(0,_1))  _C835      1.000000000000e+00
    edgepairs_((22,_23),_(0,_1))  _C864      1.000000000000e+00
    MARK      'MARKER'                 'INTEND'
    MARK      'MARKER'                 'INTORG'
    edgepairs_((22,_23),_(1,_2))  _C78       1.000000000000e+00
    edgepairs_((22,_23),_(1,_2))  _C81       1.000000000000e+00
    edgepairs_((22,_23),_(1,_2))  _C725      1.000000000000e+00
    edgepairs_((22,_23),_(1,_2))  _C753      1.000000000000e+00
    edgepairs_((22,_23),_(1,_2))  _C864      1.000000000000e+00
    edgepairs_((22,_23),_(1,_2))  _C893      1.000000000000e+00
    MARK      'MARKER'                 'INTEND'
    MARK      'MARKER'                 'INTORG'
    edgepairs_((22,_23),_(1,_3))  _C78       1.000000000000e+00
    edgepairs_((22,_23),_(1,_3))  _C82       1.000000000000e+00
    edgepairs_((22,_23),_(1,_3))  _C726      1.000000000000e+00
    edgepairs_((22,_23),_(1,_3))  _C754      1.000000000000e+00
    edgepairs_((22,_23),_(1,_3))  _C864      1.000000000000e+00
    edgepairs_((22,_23),_(1,_3))  _C922      1.000000000000e+00
    MARK      'MARKER'                 'INTEND'
    MARK      'MARKER'                 'INTORG'
    edgepairs_((22,_23),_(11,_12))  _C78       1.000000000000e+00
    edgepairs_((22,_23),_(11,_12))  _C93       1.000000000000e+00
    edgepairs_((22,_23),_(11,_12))  _C737      1.000000000000e+00
    edgepairs_((22,_23),_(11,_12))  _C765      1.000000000000e+00
    edgepairs_((22,_23),_(11,_12))  _C1154     1.000000000000e+00
    edgepairs_((22,_23),_(11,_12))  _C1183     1.000000000000e+00
    MARK      'MARKER'                 'INTEND'
    MARK      'MARKER'                 'INTORG'
    edgepairs_((22,_23),_(11,_18))  _C78       1.000000000000e+00
    edgepairs_((22,_23),_(11,_18))  _C94       1.000000000000e+00
    edgepairs_((22,_23),_(11,_18))  _C738      1.000000000000e+00
    edgepairs_((22,_23),_(11,_18))  _C766      1.000000000000e+00
    edgepairs_((22,_23),_(11,_18))  _C1154     1.000000000000e+00
    edgepairs_((22,_23),_(11,_18))  _C1357     1.000000000000e+00
    MARK      'MARKER'                 'INTEND'
    MARK      'MARKER'                 'INTORG'
    edgepairs_((22,_23),_(11,_23))  _C78       1.000000000000e+00
    edgepairs_((22,_23),_(11,_23))  _C95       1.000000000000e+00
    edgepairs_((22,_23),_(11,_23))  _C739      1.000000000000e+00
    edgepairs_((22,_23),_(11,_23))  _C767      1.000000000000e+00
    edgepairs_((22,_23),_(11,_23))  _C1154     1.000000000000e+00
    edgepairs_((22,_23),_(11,_23))  _C1502     1.000000000000e+00
    MARK      'MARKER'                 'INTEND'
    MARK      'MARKER'                 'INTORG'
    edgepairs_((22,_23),_(12,_13))  _C78       1.000000000000e+00
    edgepairs_((22,_23),_(12,_13))  _C96       1.000000000000e+00
    edgepairs_((22,_23),_(12,_13))  _C740      1.000000000000e+00
    edgepairs_((22,_23),_(12,_13))  _C768      1.000000000000e+00
    edgepairs_((22,_23),_(12,_13))  _C1183     1.000000000000e+00
    edgepairs_((22,_23),_(12,_13))  _C1212     1.000000000000e+00
    MARK      'MARKER'                 'INTEND'
    MARK      'MARKER'                 'INTORG'
    edgepairs_((22,_23),_(13,_14))  _C78       1.000000000000e+00
    edgepairs_((22,_23),_(13,_14))  _C97       1.000000000000e+00
    edgepairs_((22,_23),_(13,_14))  _C741      1.000000000000e+00
    edgepairs_((22,_23),_(13,_14))  _C769      1.000000000000e+00
    edgepairs_((22,_23),_(13,_14))  _C1212     1.000000000000e+00
    edgepairs_((22,_23),_(13,_14))  _C1241     1.000000000000e+00
    MARK      'MARKER'                 'INTEND'
    MARK      'MARKER'                 'INTORG'
    edgepairs_((22,_23),_(14,_15))  _C78       1.000000000000e+00
    edgepairs_((22,_23),_(14,_15))  _C98       1.000000000000e+00
    edgepairs_((22,_23),_(14,_15))  _C742      1.000000000000e+00
    edgepairs_((22,_23),_(14,_15))  _C770      1.000000000000e+00
    edgepairs_((22,_23),_(14,_15))  _C1241     1.000000000000e+00
    edgepairs_((22,_23),_(14,_15))  _C1270     1.000000000000e+00
    MARK      'MARKER'                 'INTEND'
    MARK      'MARKER'                 'INTORG'
    edgepairs_((22,_23),_(15,_16))  _C78       1.000000000000e+00
    edgepairs_((22,_23),_(15,_16))  _C99       1.000000000000e+00
    edgepairs_((22,_23),_(15,_16))  _C743      1.000000000000e+00
    edgepairs_((22,_23),_(15,_16))  _C771      1.000000000000e+00
    edgepairs_((22,_23),_(15,_16))  _C1270     1.000000000000e+00
    edgepairs_((22,_23),_(15,_16))  _C1299     1.000000000000e+00
    MARK      'MARKER'                 'INTEND'
    MARK      'MARKER'                 'INTORG'
    edgepairs_((22,_23),_(15,_17))  _C78       1.000000000000e+00
    edgepairs_((22,_23),_(15,_17))  _C100      1.000000000000e+00
    edgepairs_((22,_23),_(15,_17))  _C744      1.000000000000e+00
    edgepairs_((22,_23),_(15,_17))  _C772      1.000000000000e+00
    edgepairs_((22,_23),_(15,_17))  _C1270     1.000000000000e+00
    edgepairs_((22,_23),_(15,_17))  _C1328     1.000000000000e+00
    MARK      'MARKER'                 'INTEND'
    MARK      'MARKER'                 'INTORG'
    edgepairs_((22,_23),_(15,_18))  _C78       1.000000000000e+00
    edgepairs_((22,_23),_(15,_18))  _C101      1.000000000000e+00
    edgepairs_((22,_23),_(15,_18))  _C745      1.000000000000e+00
    edgepairs_((22,_23),_(15,_18))  _C773      1.000000000000e+00
    edgepairs_((22,_23),_(15,_18))  _C1270     1.000000000000e+00
    edgepairs_((22,_23),_(15,_18))  _C1357     1.000000000000e+00
    MARK      'MARKER'                 'INTEND'
    MARK      'MARKER'                 'INTORG'
    edgepairs_((22,_23),_(18,_19))  _C78       1.000000000000e+00
    edgepairs_((22,_23),_(18,_19))  _C102      1.000000000000e+00
    edgepairs_((22,_23),_(18,_19))  _C746      1.000000000000e+00
    edgepairs_((22,_23),_(18,_19))  _C774      1.000000000000e+00
    edgepairs_((22,_23),_(18,_19))  _C1357     1.000000000000e+00
    edgepairs_((22,_23),_(18,_19))  _C1386     1.000000000000e+00
    MARK      'MARKER'                 'INTEND'
    MARK      'MARKER'                 'INTORG'
    edgepairs_((22,_23),_(19,_21))  _C78       1.000000000000e+00
    edgepairs_((22,_23),_(19,_21))  _C104      1.000000000000e+00
    edgepairs_((22,_23),_(19,_21))  _C748      1.000000000000e+00
    edgepairs_((22,_23),_(19,_21))  _C776      1.000000000000e+00
    edgepairs_((22,_23),_(19,_21))  _C1386     1.000000000000e+00
    edgepairs_((22,_23),_(19,_21))  _C1444     1.000000000000e+00
    MARK      'MARKER'                 'INTEND'
    MARK      'MARKER'                 'INTORG'
    edgepairs_((22,_23),_(3,_4))  _C78       1.000000000000e+00
    edgepairs_((22,_23),_(3,_4))  _C83       1.000000000000e+00
    edgepairs_((22,_23),_(3,_4))  _C727      1.000000000000e+00
    edgepairs_((22,_23),_(3,_4))  _C755      1.000000000000e+00
    edgepairs_((22,_23),_(3,_4))  _C922      1.000000000000e+00
    edgepairs_((22,_23),_(3,_4))  _C951      1.000000000000e+00
    edgepairs_((22,_23),_(3,_4))  _C1533     5.000000000000e-01
    edgepairs_((22,_23),_(3,_4))  OBJ        5.000000000000e-01
    MARK      'MARKER'                 'INTEND'
    MARK      'MARKER'                 'INTORG'
    edgepairs_((22,_23),_(3,_9))  _C78       1.000000000000e+00
    edgepairs_((22,_23),_(3,_9))  _C84       1.000000000000e+00
    edgepairs_((22,_23),_(3,_9))  _C728      1.000000000000e+00
    edgepairs_((22,_23),_(3,_9))  _C756      1.000000000000e+00
    edgepairs_((22,_23),_(3,_9))  _C922      1.000000000000e+00
    edgepairs_((22,_23),_(3,_9))  _C1096     1.000000000000e+00
    edgepairs_((22,_23),_(3,_9))  _C1533     5.000000000000e-01
    edgepairs_((22,_23),_(3,_9))  OBJ        5.000000000000e-01
    MARK      'MARKER'                 'INTEND'
    MARK      'MARKER'                 'INTORG'
    edgepairs_((22,_23),_(4,_5))  _C78       1.000000000000e+00
    edgepairs_((22,_23),_(4,_5))  _C85       1.000000000000e+00
    edgepairs_((22,_23),_(4,_5))  _C729      1.000000000000e+00
    edgepairs_((22,_23),_(4,_5))  _C757      1.000000000000e+00
    edgepairs_((22,_23),_(4,_5))  _C951      1.000000000000e+00
    edgepairs_((22,_23),_(4,_5))  _C980      1.000000000000e+00
    edgepairs_((22,_23),_(4,_5))  _C1533     5.000000000000e-01
    edgepairs_((22,_23),_(4,_5))  OBJ        5.000000000000e-01
    MARK      'MARKER'                 'INTEND'
    MARK      'MARKER'                 'INTORG'
    edgepairs_((22,_23),_(5,_21))  _C78       1.000000000000e+00
    edgepairs_((22,_23),_(5,_21))  _C87       1.000000000000e+00
    edgepairs_((22,_23),_(5,_21))  _C731      1.000000000000e+00
    edgepairs_((22,_23),_(5,_21))  _C759      1.000000000000e+00
    edgepairs_((22,_23),_(5,_21))  _C980      1.000000000000e+00
    edgepairs_((22,_23),_(5,_21))  _C1444     1.000000000000e+00
    MARK      'MARKER'                 'INTEND'
    MARK      'MARKER'                 'INTORG'
    edgepairs_((22,_23),_(5,_6))  _C78       1.000000000000e+00
    edgepairs_((22,_23),_(5,_6))  _C86       1.000000000000e+00
    edgepairs_((22,_23),_(5,_6))  _C730      1.000000000000e+00
    edgepairs_((22,_23),_(5,_6))  _C758      1.000000000000e+00
    edgepairs_((22,_23),_(5,_6))  _C980      1.000000000000e+00
    edgepairs_((22,_23),_(5,_6))  _C1009     1.000000000000e+00
    edgepairs_((22,_23),_(5,_6))  _C1533     5.000000000000e-01
    edgepairs_((22,_23),_(5,_6))  OBJ        5.000000000000e-01
    MARK      'MARKER'                 'INTEND'
    MARK      'MARKER'                 'INTORG'
    edgepairs_((22,_23),_(6,_11))  _C78       1.000000000000e+00
    edgepairs_((22,_23),_(6,_11))  _C89       1.000000000000e+00
    edgepairs_((22,_23),_(6,_11))  _C733      1.000000000000e+00
    edgepairs_((22,_23),_(6,_11))  _C761      1.000000000000e+00
    edgepairs_((22,_23),_(6,_11))  _C1009     1.000000000000e+00
    edgepairs_((22,_23),_(6,_11))  _C1154     1.000000000000e+00
    MARK      'MARKER'                 'INTEND'
    MARK      'MARKER'                 'INTORG'
    edgepairs_((22,_23),_(6,_7))  _C78       1.000000000000e+00
    edgepairs_((22,_23),_(6,_7))  _C88       1.000000000000e+00
    edgepairs_((22,_23),_(6,_7))  _C732      1.000000000000e+00
    edgepairs_((22,_23),_(6,_7))  _C760      1.000000000000e+00
    edgepairs_((22,_23),_(6,_7))  _C1009     1.000000000000e+00
    edgepairs_((22,_23),_(6,_7))  _C1038     1.000000000000e+00
    edgepairs_((22,_23),_(6,_7))  _C1533     5.000000000000e-01
    edgepairs_((22,_23),_(6,_7))  OBJ        5.000000000000e-01
    MARK      'MARKER'                 'INTEND'
    MARK      'MARKER'                 'INTORG'
    edgepairs_((22,_23),_(7,_9))  _C78       1.000000000000e+00
    edgepairs_((22,_23),_(7,_9))  _C91       1.000000000000e+00
    edgepairs_((22,_23),_(7,_9))  _C735      1.000000000000e+00
    edgepairs_((22,_23),_(7,_9))  _C763      1.000000000000e+00
    edgepairs_((22,_23),_(7,_9))  _C1038     1.000000000000e+00
    edgepairs_((22,_23),_(7,_9))  _C1096     1.000000000000e+00
    edgepairs_((22,_23),_(7,_9))  _C1533     5.000000000000e-01
    edgepairs_((22,_23),_(7,_9))  OBJ        5.000000000000e-01
    MARK      'MARKER'                 'INTEND'
    MARK      'MARKER'                 'INTORG'
    edgepairs_((22,_23),__1)  _C78       1.000000000000e+00
    edgepairs_((22,_23),__1)  _C1533     1.000000000000e+00
    edgepairs_((22,_23),__1)  OBJ        1.000000000000e+00
    MARK      'MARKER'                 'INTEND'
    MARK      'MARKER'                 'INTORG'
    edgepairs_((23,_24),_(19,_20))  _C79       1.000000000000e+00
    edgepairs_((23,_24),_(19,_20))  _C103      1.000000000000e+00
    edgepairs_((23,_24),_(19,_20))  _C775      1.000000000000e+00
    edgepairs_((23,_24),_(19,_20))  _C803      1.000000000000e+00
    edgepairs_((23,_24),_(19,_20))  _C1387     1.000000000000e+00
    edgepairs_((23,_24),_(19,_20))  _C1416     1.000000000000e+00
    MARK      'MARKER'                 'INTEND'
    MARK      'MARKER'                 'INTORG'
    edgepairs_((23,_24),_(21,_22))  _C79       1.000000000000e+00
    edgepairs_((23,_24),_(21,_22))  _C105      1.000000000000e+00
    edgepairs_((23,_24),_(21,_22))  _C777      1.000000000000e+00
    edgepairs_((23,_24),_(21,_22))  _C805      1.000000000000e+00
    edgepairs_((23,_24),_(21,_22))  _C1445     1.000000000000e+00
    edgepairs_((23,_24),_(21,_22))  _C1474     1.000000000000e+00
    MARK      'MARKER'                 'INTEND'
    MARK      'MARKER'                 'INTORG'
    edgepairs_((23,_24),_(22,_23))  _C79       1.000000000000e+00
    edgepairs_((23,_24),_(22,_23))  _C106      1.000000000000e+00
    edgepairs_((23,_24),_(22,_23))  _C778      1.000000000000e+00
    edgepairs_((23,_24),_(22,_23))  _C806      1.000000000000e+00
    edgepairs_((23,_24),_(22,_23))  _C1474     1.000000000000e+00
    edgepairs_((23,_24),_(22,_23))  _C1503     1.000000000000e+00
    MARK      'MARKER'                 'INTEND'
    MARK      'MARKER'                 'INTORG'
    edgepairs_((23,_24),_(23,_24))  _C79       1.000000000000e+00
    edgepairs_((23,_24),_(23,_24))  _C107      1.000000000000e+00
    edgepairs_((23,_24),_(23,_24))  _C779      1.000000000000e+00
    edgepairs_((23,_24),_(23,_24))  _C807      1.000000000000e+00
    edgepairs_((23,_24),_(23,_24))  _C1503     1.000000000000e+00
    edgepairs_((23,_24),_(23,_24))  _C1532     1.000000000000e+00
    edgepairs_((23,_24),_(23,_24))  _C1533     1.000000000000e+00
    edgepairs_((23,_24),_(23,_24))  OBJ        1.000000000000e+00
    MARK      'MARKER'                 'INTEND'
    MARK      'MARKER'                 'INTORG'
    edgepairs_((23,_24),_(7,_8))  _C79       1.000000000000e+00
    edgepairs_((23,_24),_(7,_8))  _C90       1.000000000000e+00
    edgepairs_((23,_24),_(7,_8))  _C762      1.000000000000e+00
    edgepairs_((23,_24),_(7,_8))  _C790      1.000000000000e+00
    edgepairs_((23,_24),_(7,_8))  _C1039     1.000000000000e+00
    edgepairs_((23,_24),_(7,_8))  _C1068     1.000000000000e+00
    MARK      'MARKER'                 'INTEND'
    MARK      'MARKER'                 'INTORG'
    edgepairs_((23,_24),_(9,_10))  _C79       1.000000000000e+00
    edgepairs_((23,_24),_(9,_10))  _C92       1.000000000000e+00
    edgepairs_((23,_24),_(9,_10))  _C764      1.000000000000e+00
    edgepairs_((23,_24),_(9,_10))  _C792      1.000000000000e+00
    edgepairs_((23,_24),_(9,_10))  _C1097     1.000000000000e+00
    edgepairs_((23,_24),_(9,_10))  _C1126     1.000000000000e+00
    MARK      'MARKER'                 'INTEND'
    MARK      'MARKER'                 'INTORG'
    edgepairs_((23,_24),__1)  _C79       1.000000000000e+00
    edgepairs_((23,_24),__1)  _C1533     1.000000000000e+00
    edgepairs_((23,_24),__1)  OBJ        1.000000000000e+00
    MARK      'MARKER'                 'INTEND'
    MARK      'MARKER'                 'INTORG'
    edgepairs_((3,_4),_(0,_1))  _C57       1.000000000000e+00
    edgepairs_((3,_4),_(0,_1))  _C80       1.000000000000e+00
    edgepairs_((3,_4),_(0,_1))  _C192      1.000000000000e+00
    edgepairs_((3,_4),_(0,_1))  _C220      1.000000000000e+00
    edgepairs_((3,_4),_(0,_1))  _C814      1.000000000000e+00
    edgepairs_((3,_4),_(0,_1))  _C843      1.000000000000e+00
    MARK      'MARKER'                 'INTEND'
    MARK      'MARKER'                 'INTORG'
    edgepairs_((3,_4),_(1,_2))  _C57       1.000000000000e+00
    edgepairs_((3,_4),_(1,_2))  _C81       1.000000000000e+00
    edgepairs_((3,_4),_(1,_2))  _C193      1.000000000000e+00
    edgepairs_((3,_4),_(1,_2))  _C221      1.000000000000e+00
    edgepairs_((3,_4),_(1,_2))  _C843      1.000000000000e+00
    edgepairs_((3,_4),_(1,_2))  _C872      1.000000000000e+00
    MARK      'MARKER'                 'INTEND'
    MARK      'MARKER'                 'INTORG'
    edgepairs_((3,_4),_(1,_3))  _C57       1.000000000000e+00
    edgepairs_((3,_4),_(1,_3))  _C82       1.000000000000e+00
    edgepairs_((3,_4),_(1,_3))  _C194      1.000000000000e+00
    edgepairs_((3,_4),_(1,_3))  _C222      1.000000000000e+00
    edgepairs_((3,_4),_(1,_3))  _C843      1.000000000000e+00
    edgepairs_((3,_4),_(1,_3))  _C901      1.000000000000e+00
    MARK      'MARKER'                 'INTEND'
    MARK      'MARKER'                 'INTORG'
    edgepairs_((3,_4),_(11,_12))  _C57       1.000000000000e+00
    edgepairs_((3,_4),_(11,_12))  _C93       1.000000000000e+00
    edgepairs_((3,_4),_(11,_12))  _C205      1.000000000000e+00
    edgepairs_((3,_4),_(11,_12))  _C233      1.000000000000e+00
    edgepairs_((3,_4),_(11,_12))  _C1133     1.000000000000e+00
    edgepairs_((3,_4),_(11,_12))  _C1162     1.000000000000e+00
    MARK      'MARKER'                 'INTEND'
    MARK      'MARKER'                 'INTORG'
    edgepairs_((3,_4),_(11,_18))  _C57       1.000000000000e+00
    edgepairs_((3,_4),_(11,_18))  _C94       1.000000000000e+00
    edgepairs_((3,_4),_(11,_18))  _C206      1.000000000000e+00
    edgepairs_((3,_4),_(11,_18))  _C234      1.000000000000e+00
    edgepairs_((3,_4),_(11,_18))  _C1133     1.000000000000e+00
    edgepairs_((3,_4),_(11,_18))  _C1336     1.000000000000e+00
    MARK      'MARKER'                 'INTEND'
    MARK      'MARKER'                 'INTORG'
    edgepairs_((3,_4),_(11,_23))  _C57       1.000000000000e+00
    edgepairs_((3,_4),_(11,_23))  _C95       1.000000000000e+00
    edgepairs_((3,_4),_(11,_23))  _C207      1.000000000000e+00
    edgepairs_((3,_4),_(11,_23))  _C235      1.000000000000e+00
    edgepairs_((3,_4),_(11,_23))  _C1133     1.000000000000e+00
    edgepairs_((3,_4),_(11,_23))  _C1481     1.000000000000e+00
    MARK      'MARKER'                 'INTEND'
    MARK      'MARKER'                 'INTORG'
    edgepairs_((3,_4),_(12,_13))  _C57       1.000000000000e+00
    edgepairs_((3,_4),_(12,_13))  _C96       1.000000000000e+00
    edgepairs_((3,_4),_(12,_13))  _C208      1.000000000000e+00
    edgepairs_((3,_4),_(12,_13))  _C236      1.000000000000e+00
    edgepairs_((3,_4),_(12,_13))  _C1162     1.000000000000e+00
    edgepairs_((3,_4),_(12,_13))  _C1191     1.000000000000e+00
    MARK      'MARKER'                 'INTEND'
    MARK      'MARKER'                 'INTORG'
    edgepairs_((3,_4),_(13,_14))  _C57       1.000000000000e+00
    edgepairs_((3,_4),_(13,_14))  _C97       1.000000000000e+00
    edgepairs_((3,_4),_(13,_14))  _C209      1.000000000000e+00
    edgepairs_((3,_4),_(13,_14))  _C237      1.000000000000e+00
    edgepairs_((3,_4),_(13,_14))  _C1191     1.000000000000e+00
    edgepairs_((3,_4),_(13,_14))  _C1220     1.000000000000e+00
    MARK      'MARKER'                 'INTEND'
    MARK      'MARKER'                 'INTORG'
    edgepairs_((3,_4),_(14,_15))  _C57       1.000000000000e+00
    edgepairs_((3,_4),_(14,_15))  _C98       1.000000000000e+00
    edgepairs_((3,_4),_(14,_15))  _C210      1.000000000000e+00
    edgepairs_((3,_4),_(14,_15))  _C238      1.000000000000e+00
    edgepairs_((3,_4),_(14,_15))  _C1220     1.000000000000e+00
    edgepairs_((3,_4),_(14,_15))  _C1249     1.000000000000e+00
    MARK      'MARKER'                 'INTEND'
    MARK      'MARKER'                 'INTORG'
    edgepairs_((3,_4),_(15,_16))  _C57       1.000000000000e+00
    edgepairs_((3,_4),_(15,_16))  _C99       1.000000000000e+00
    edgepairs_((3,_4),_(15,_16))  _C211      1.000000000000e+00
    edgepairs_((3,_4),_(15,_16))  _C239      1.000000000000e+00
    edgepairs_((3,_4),_(15,_16))  _C1249     1.000000000000e+00
    edgepairs_((3,_4),_(15,_16))  _C1278     1.000000000000e+00
    MARK      'MARKER'                 'INTEND'
    MARK      'MARKER'                 'INTORG'
    edgepairs_((3,_4),_(15,_17))  _C57       1.000000000000e+00
    edgepairs_((3,_4),_(15,_17))  _C100      1.000000000000e+00
    edgepairs_((3,_4),_(15,_17))  _C212      1.000000000000e+00
    edgepairs_((3,_4),_(15,_17))  _C240      1.000000000000e+00
    edgepairs_((3,_4),_(15,_17))  _C1249     1.000000000000e+00
    edgepairs_((3,_4),_(15,_17))  _C1307     1.000000000000e+00
    MARK      'MARKER'                 'INTEND'
    MARK      'MARKER'                 'INTORG'
    edgepairs_((3,_4),_(15,_18))  _C57       1.000000000000e+00
    edgepairs_((3,_4),_(15,_18))  _C101      1.000000000000e+00
    edgepairs_((3,_4),_(15,_18))  _C213      1.000000000000e+00
    edgepairs_((3,_4),_(15,_18))  _C241      1.000000000000e+00
    edgepairs_((3,_4),_(15,_18))  _C1249     1.000000000000e+00
    edgepairs_((3,_4),_(15,_18))  _C1336     1.000000000000e+00
    MARK      'MARKER'                 'INTEND'
    MARK      'MARKER'                 'INTORG'
    edgepairs_((3,_4),_(18,_19))  _C57       1.000000000000e+00
    edgepairs_((3,_4),_(18,_19))  _C102      1.000000000000e+00
    edgepairs_((3,_4),_(18,_19))  _C214      1.000000000000e+00
    edgepairs_((3,_4),_(18,_19))  _C242      1.000000000000e+00
    edgepairs_((3,_4),_(18,_19))  _C1336     1.000000000000e+00
    edgepairs_((3,_4),_(18,_19))  _C1365     1.000000000000e+00
    MARK      'MARKER'                 'INTEND'
    MARK      'MARKER'                 'INTORG'
    edgepairs_((3,_4),_(19,_21))  _C57       1.000000000000e+00
    edgepairs_((3,_4),_(19,_21))  _C104      1.000000000000e+00
    edgepairs_((3,_4),_(19,_21))  _C216      1.000000000000e+00
    edgepairs_((3,_4),_(19,_21))  _C244      1.000000000000e+00
    edgepairs_((3,_4),_(19,_21))  _C1365     1.000000000000e+00
    edgepairs_((3,_4),_(19,_21))  _C1423     1.000000000000e+00
    MARK      'MARKER'                 'INTEND'
    MARK      'MARKER'                 'INTORG'
    edgepairs_((3,_4),_(3,_4))  _C57       1.000000000000e+00
    edgepairs_((3,_4),_(3,_4))  _C83       1.000000000000e+00
    edgepairs_((3,_4),_(3,_4))  _C195      1.000000000000e+00
    edgepairs_((3,_4),_(3,_4))  _C223      1.000000000000e+00
    edgepairs_((3,_4),_(3,_4))  _C901      1.000000000000e+00
    edgepairs_((3,_4),_(3,_4))  _C930      1.000000000000e+00
    edgepairs_((3,_4),_(3,_4))  _C1533     5.000000000000e-01
    edgepairs_((3,_4),_(3,_4))  OBJ        5.000000000000e-01
    MARK      'MARKER'                 'INTEND'
    MARK      'MARKER'                 'INTORG'
    edgepairs_((3,_4),_(3,_9))  _C57       1.000000000000e+00
    edgepairs_((3,_4),_(3,_9))  _C84       1.000000000000e+00
    edgepairs_((3,_4),_(3,_9))  _C196      1.000000000000e+00
    edgepairs_((3,_4),_(3,_9))  _C224      1.000000000000e+00
    edgepairs_((3,_4),_(3,_9))  _C901      1.000000000000e+00
    edgepairs_((3,_4),_(3,_9))  _C1075     1.000000000000e+00
    edgepairs_((3,_4),_(3,_9))  _C1533     5.000000000000e-01
    edgepairs_((3,_4),_(3,_9))  OBJ        5.000000000000e-01
    MARK      'MARKER'                 'INTEND'
    MARK      'MARKER'                 'INTORG'
    edgepairs_((3,_4),_(4,_5))  _C57       1.000000000000e+00
    edgepairs_((3,_4),_(4,_5))  _C85       1.000000000000e+00
    edgepairs_((3,_4),_(4,_5))  _C197      1.000000000000e+00
    edgepairs_((3,_4),_(4,_5))  _C225      1.000000000000e+00
    edgepairs_((3,_4),_(4,_5))  _C930      1.000000000000e+00
    edgepairs_((3,_4),_(4,_5))  _C959      1.000000000000e+00
    edgepairs_((3,_4),_(4,_5))  _C1533     5.000000000000e-01
    edgepairs_((3,_4),_(4,_5))  OBJ        5.000000000000e-01
    MARK      'MARKER'                 'INTEND'
    MARK      'MARKER'                 'INTORG'
    edgepairs_((3,_4),_(5,_21))  _C57       1.000000000000e+00
    edgepairs_((3,_4),_(5,_21))  _C87       1.000000000000e+00
    edgepairs_((3,_4),_(5,_21))  _C199      1.000000000000e+00
    edgepairs_((3,_4),_(5,_21))  _C227      1.000000000000e+00
    edgepairs_((3,_4),_(5,_21))  _C959      1.000000000000e+00
    edgepairs_((3,_4),_(5,_21))  _C1423     1.000000000000e+00
    MARK      'MARKER'                 'INTEND'
    MARK      'MARKER'                 'INTORG'
    edgepairs_((3,_4),_(5,_6))  _C57       1.000000000000e+00
    edgepairs_((3,_4),_(5,_6))  _C86       1.000000000000e+00
    edgepairs_((3,_4),_(5,_6))  _C198      1.000000000000e+00
    edgepairs_((3,_4),_(5,_6))  _C226      1.000000000000e+00
    edgepairs_((3,_4),_(5,_6))  _C959      1.000000000000e+00
    edgepairs_((3,_4),_(5,_6))  _C988      1.000000000000e+00
    edgepairs_((3,_4),_(5,_6))  _C1533     5.000000000000e-01
    edgepairs_((3,_4),_(5,_6))  OBJ        5.000000000000e-01
    MARK      'MARKER'                 'INTEND'
    MARK      'MARKER'                 'INTORG'
    edgepairs_((3,_4),_(6,_11))  _C57       1.000000000000e+00
    edgepairs_((3,_4),_(6,_11))  _C89       1.000000000000e+00
    edgepairs_((3,_4),_(6,_11))  _C201      1.000000000000e+00
    edgepairs_((3,_4),_(6,_11))  _C229      1.000000000000e+00
    edgepairs_((3,_4),_(6,_11))  _C988      1.000000000000e+00
    edgepairs_((3,_4),_(6,_11))  _C1133     1.000000000000e+00
    MARK      'MARKER'                 'INTEND'
    MARK      'MARKER'                 'INTORG'
    edgepairs_((3,_4),_(6,_7))  _C57       1.000000000000e+00
    edgepairs_((3,_4),_(6,_7))  _C88       1.000000000000e+00
    edgepairs_((3,_4),_(6,_7))  _C200      1.000000000000e+00
    edgepairs_((3,_4),_(6,_7))  _C228      1.000000000000e+00
    edgepairs_((3,_4),_(6,_7))  _C988      1.000000000000e+00
    edgepairs_((3,_4),_(6,_7))  _C1017     1.000000000000e+00
    edgepairs_((3,_4),_(6,_7))  _C1533     5.000000000000e-01
    edgepairs_((3,_4),_(6,_7))  OBJ        5.000000000000e-01
    MARK      'MARKER'                 'INTEND'
    MARK      'MARKER'                 'INTORG'
    edgepairs_((3,_4),_(7,_9))  _C57       1.000000000000e+00
    edgepairs_((3,_4),_(7,_9))  _C91       1.000000000000e+00
    edgepairs_((3,_4),_(7,_9))  _C203      1.000000000000e+00
    edgepairs_((3,_4),_(7,_9))  _C231      1.000000000000e+00
    edgepairs_((3,_4),_(7,_9))  _C1017     1.000000000000e+00
    edgepairs_((3,_4),_(7,_9))  _C1075     1.000000000000e+00
    edgepairs_((3,_4),_(7,_9))  _C1533     5.000000000000e-01
    edgepairs_((3,_4),_(7,_9))  OBJ        5.000000000000e-01
    MARK      'MARKER'                 'INTEND'
    MARK      'MARKER'                 'INTORG'
    edgepairs_((3,_4),__1)  _C57       1.000000000000e+00
    edgepairs_((3,_4),__1)  _C1533     1.000000000000e+00
    edgepairs_((3,_4),__1)  OBJ        1.000000000000e+00
    MARK      'MARKER'                 'INTEND'
    MARK      'MARKER'                 'INTORG'
    edgepairs_((3,_7),_(0,_1))  _C58       1.000000000000e+00
    edgepairs_((3,_7),_(0,_1))  _C80       1.000000000000e+00
    edgepairs_((3,_7),_(0,_1))  _C192      1.000000000000e+00
    edgepairs_((3,_7),_(0,_1))  _C304      1.000000000000e+00
    edgepairs_((3,_7),_(0,_1))  _C815      1.000000000000e+00
    edgepairs_((3,_7),_(0,_1))  _C844      1.000000000000e+00
    MARK      'MARKER'                 'INTEND'
    MARK      'MARKER'                 'INTORG'
    edgepairs_((3,_7),_(1,_2))  _C58       1.000000000000e+00
    edgepairs_((3,_7),_(1,_2))  _C81       1.000000000000e+00
    edgepairs_((3,_7),_(1,_2))  _C193      1.000000000000e+00
    edgepairs_((3,_7),_(1,_2))  _C305      1.000000000000e+00
    edgepairs_((3,_7),_(1,_2))  _C844      1.000000000000e+00
    edgepairs_((3,_7),_(1,_2))  _C873      1.000000000000e+00
    MARK      'MARKER'                 'INTEND'
    MARK      'MARKER'                 'INTORG'
    edgepairs_((3,_7),_(1,_3))  _C58       1.000000000000e+00
    edgepairs_((3,_7),_(1,_3))  _C82       1.000000000000e+00
    edgepairs_((3,_7),_(1,_3))  _C194      1.000000000000e+00
    edgepairs_((3,_7),_(1,_3))  _C306      1.000000000000e+00
    edgepairs_((3,_7),_(1,_3))  _C844      1.000000000000e+00
    edgepairs_((3,_7),_(1,_3))  _C902      1.000000000000e+00
    MARK      'MARKER'                 'INTEND'
    MARK      'MARKER'                 'INTORG'
    edgepairs_((3,_7),_(11,_12))  _C58       1.000000000000e+00
    edgepairs_((3,_7),_(11,_12))  _C93       1.000000000000e+00
    edgepairs_((3,_7),_(11,_12))  _C205      1.000000000000e+00
    edgepairs_((3,_7),_(11,_12))  _C317      1.000000000000e+00
    edgepairs_((3,_7),_(11,_12))  _C1134     1.000000000000e+00
    edgepairs_((3,_7),_(11,_12))  _C1163     1.000000000000e+00
    MARK      'MARKER'                 'INTEND'
    MARK      'MARKER'                 'INTORG'
    edgepairs_((3,_7),_(11,_18))  _C58       1.000000000000e+00
    edgepairs_((3,_7),_(11,_18))  _C94       1.000000000000e+00
    edgepairs_((3,_7),_(11,_18))  _C206      1.000000000000e+00
    edgepairs_((3,_7),_(11,_18))  _C318      1.000000000000e+00
    edgepairs_((3,_7),_(11,_18))  _C1134     1.000000000000e+00
    edgepairs_((3,_7),_(11,_18))  _C1337     1.000000000000e+00
    MARK      'MARKER'                 'INTEND'
    MARK      'MARKER'                 'INTORG'
    edgepairs_((3,_7),_(11,_23))  _C58       1.000000000000e+00
    edgepairs_((3,_7),_(11,_23))  _C95       1.000000000000e+00
    edgepairs_((3,_7),_(11,_23))  _C207      1.000000000000e+00
    edgepairs_((3,_7),_(11,_23))  _C319      1.000000000000e+00
    edgepairs_((3,_7),_(11,_23))  _C1134     1.000000000000e+00
    edgepairs_((3,_7),_(11,_23))  _C1482     1.000000000000e+00
    MARK      'MARKER'                 'INTEND'
    MARK      'MARKER'                 'INTORG'
    edgepairs_((3,_7),_(12,_13))  _C58       1.000000000000e+00
    edgepairs_((3,_7),_(12,_13))  _C96       1.000000000000e+00
    edgepairs_((3,_7),_(12,_13))  _C208      1.000000000000e+00
    edgepairs_((3,_7),_(12,_13))  _C320      1.000000000000e+00
    edgepairs_((3,_7),_(12,_13))  _C1163     1.000000000000e+00
    edgepairs_((3,_7),_(12,_13))  _C1192     1.000000000000e+00
    MARK      'MARKER'                 'INTEND'
    MARK      'MARKER'                 'INTORG'
    edgepairs_((3,_7),_(13,_14))  _C58       1.000000000000e+00
    edgepairs_((3,_7),_(13,_14))  _C97       1.000000000000e+00
    edgepairs_((3,_7),_(13,_14))  _C209      1.000000000000e+00
    edgepairs_((3,_7),_(13,_14))  _C321      1.000000000000e+00
    edgepairs_((3,_7),_(13,_14))  _C1192     1.000000000000e+00
    edgepairs_((3,_7),_(13,_14))  _C1221     1.000000000000e+00
    MARK      'MARKER'                 'INTEND'
    MARK      'MARKER'                 'INTORG'
    edgepairs_((3,_7),_(14,_15))  _C58       1.000000000000e+00
    edgepairs_((3,_7),_(14,_15))  _C98       1.000000000000e+00
    edgepairs_((3,_7),_(14,_15))  _C210      1.000000000000e+00
    edgepairs_((3,_7),_(14,_15))  _C322      1.000000000000e+00
    edgepairs_((3,_7),_(14,_15))  _C1221     1.000000000000e+00
    edgepairs_((3,_7),_(14,_15))  _C1250     1.000000000000e+00
    MARK      'MARKER'                 'INTEND'
    MARK      'MARKER'                 'INTORG'
    edgepairs_((3,_7),_(15,_16))  _C58       1.000000000000e+00
    edgepairs_((3,_7),_(15,_16))  _C99       1.000000000000e+00
    edgepairs_((3,_7),_(15,_16))  _C211      1.000000000000e+00
    edgepairs_((3,_7),_(15,_16))  _C323      1.000000000000e+00
    edgepairs_((3,_7),_(15,_16))  _C1250     1.000000000000e+00
    edgepairs_((3,_7),_(15,_16))  _C1279     1.000000000000e+00
    MARK      'MARKER'                 'INTEND'
    MARK      'MARKER'                 'INTORG'
    edgepairs_((3,_7),_(15,_17))  _C58       1.000000000000e+00
    edgepairs_((3,_7),_(15,_17))  _C100      1.000000000000e+00
    edgepairs_((3,_7),_(15,_17))  _C212      1.000000000000e+00
    edgepairs_((3,_7),_(15,_17))  _C324      1.000000000000e+00
    edgepairs_((3,_7),_(15,_17))  _C1250     1.000000000000e+00
    edgepairs_((3,_7),_(15,_17))  _C1308     1.000000000000e+00
    MARK      'MARKER'                 'INTEND'
    MARK      'MARKER'                 'INTORG'
    edgepairs_((3,_7),_(15,_18))  _C58       1.000000000000e+00
    edgepairs_((3,_7),_(15,_18))  _C101      1.000000000000e+00
    edgepairs_((3,_7),_(15,_18))  _C213      1.000000000000e+00
    edgepairs_((3,_7),_(15,_18))  _C325      1.000000000000e+00
    edgepairs_((3,_7),_(15,_18))  _C1250     1.000000000000e+00
    edgepairs_((3,_7),_(15,_18))  _C1337     1.000000000000e+00
    MARK      'MARKER'                 'INTEND'
    MARK      'MARKER'                 'INTORG'
    edgepairs_((3,_7),_(18,_19))  _C58       1.000000000000e+00
    edgepairs_((3,_7),_(18,_19))  _C102      1.000000000000e+00
    edgepairs_((3,_7),_(18,_19))  _C214      1.000000000000e+00
    edgepairs_((3,_7),_(18,_19))  _C326      1.000000000000e+00
    edgepairs_((3,_7),_(18,_19))  _C1337     1.000000000000e+00
    edgepairs_((3,_7),_(18,_19))  _C1366     1.000000000000e+00
    MARK      'MARKER'                 'INTEND'
    MARK      'MARKER'                 'INTORG'
    edgepairs_((3,_7),_(19,_21))  _C58       1.000000000000e+00
    edgepairs_((3,_7),_(19,_21))  _C104      1.000000000000e+00
    edgepairs_((3,_7),_(19,_21))  _C216      1.000000000000e+00
    edgepairs_((3,_7),_(19,_21))  _C328      1.000000000000e+00
    edgepairs_((3,_7),_(19,_21))  _C1366     1.000000000000e+00
    edgepairs_((3,_7),_(19,_21))  _C1424     1.000000000000e+00
    MARK      'MARKER'                 'INTEND'
    MARK      'MARKER'                 'INTORG'
    edgepairs_((3,_7),_(3,_4))  _C58       1.000000000000e+00
    edgepairs_((3,_7),_(3,_4))  _C83       1.000000000000e+00
    edgepairs_((3,_7),_(3,_4))  _C195      1.000000000000e+00
    edgepairs_((3,_7),_(3,_4))  _C307      1.000000000000e+00
    edgepairs_((3,_7),_(3,_4))  _C902      1.000000000000e+00
    edgepairs_((3,_7),_(3,_4))  _C931      1.000000000000e+00
    edgepairs_((3,_7),_(3,_4))  _C1533     5.000000000000e-01
    edgepairs_((3,_7),_(3,_4))  OBJ        5.000000000000e-01
    MARK      'MARKER'                 'INTEND'
    MARK      'MARKER'                 'INTORG'
    edgepairs_((3,_7),_(3,_9))  _C58       1.000000000000e+00
    edgepairs_((3,_7),_(3,_9))  _C84       1.000000000000e+00
    edgepairs_((3,_7),_(3,_9))  _C196      1.000000000000e+00
    edgepairs_((3,_7),_(3,_9))  _C308      1.000000000000e+00
    edgepairs_((3,_7),_(3,_9))  _C902      1.000000000000e+00
    edgepairs_((3,_7),_(3,_9))  _C1076     1.000000000000e+00
    edgepairs_((3,_7),_(3,_9))  _C1533     5.000000000000e-01
    edgepairs_((3,_7),_(3,_9))  OBJ        5.000000000000e-01
    MARK      'MARKER'                 'INTEND'
    MARK      'MARKER'                 'INTORG'
    edgepairs_((3,_7),_(4,_5))  _C58       1.000000000000e+00
    edgepairs_((3,_7),_(4,_5))  _C85       1.000000000000e+00
    edgepairs_((3,_7),_(4,_5))  _C197      1.000000000000e+00
    edgepairs_((3,_7),_(4,_5))  _C309      1.000000000000e+00
    edgepairs_((3,_7),_(4,_5))  _C931      1.000000000000e+00
    edgepairs_((3,_7),_(4,_5))  _C960      1.000000000000e+00
    edgepairs_((3,_7),_(4,_5))  _C1533     5.000000000000e-01
    edgepairs_((3,_7),_(4,_5))  OBJ        5.000000000000e-01
    MARK      'MARKER'                 'INTEND'
    MARK      'MARKER'                 'INTORG'
    edgepairs_((3,_7),_(5,_21))  _C58       1.000000000000e+00
    edgepairs_((3,_7),_(5,_21))  _C87       1.000000000000e+00
    edgepairs_((3,_7),_(5,_21))  _C199      1.000000000000e+00
    edgepairs_((3,_7),_(5,_21))  _C311      1.000000000000e+00
    edgepairs_((3,_7),_(5,_21))  _C960      1.000000000000e+00
    edgepairs_((3,_7),_(5,_21))  _C1424     1.000000000000e+00
    MARK      'MARKER'                 'INTEND'
    MARK      'MARKER'                 'INTORG'
    edgepairs_((3,_7),_(5,_6))  _C58       1.000000000000e+00
    edgepairs_((3,_7),_(5,_6))  _C86       1.000000000000e+00
    edgepairs_((3,_7),_(5,_6))  _C198      1.000000000000e+00
    edgepairs_((3,_7),_(5,_6))  _C310      1.000000000000e+00
    edgepairs_((3,_7),_(5,_6))  _C960      1.000000000000e+00
    edgepairs_((3,_7),_(5,_6))  _C989      1.000000000000e+00
    edgepairs_((3,_7),_(5,_6))  _C1533     5.000000000000e-01
    edgepairs_((3,_7),_(5,_6))  OBJ        5.000000000000e-01
    MARK      'MARKER'                 'INTEND'
    MARK      'MARKER'                 'INTORG'
    edgepairs_((3,_7),_(6,_11))  _C58       1.000000000000e+00
    edgepairs_((3,_7),_(6,_11))  _C89       1.000000000000e+00
    edgepairs_((3,_7),_(6,_11))  _C201      1.000000000000e+00
    edgepairs_((3,_7),_(6,_11))  _C313      1.000000000000e+00
    edgepairs_((3,_7),_(6,_11))  _C989      1.000000000000e+00
    edgepairs_((3,_7),_(6,_11))  _C1134     1.000000000000e+00
    MARK      'MARKER'                 'INTEND'
    MARK      'MARKER'                 'INTORG'
    edgepairs_((3,_7),_(6,_7))  _C58       1.000000000000e+00
    edgepairs_((3,_7),_(6,_7))  _C88       1.000000000000e+00
    edgepairs_((3,_7),_(6,_7))  _C200      1.000000000000e+00
    edgepairs_((3,_7),_(6,_7))  _C312      1.000000000000e+00
    edgepairs_((3,_7),_(6,_7))  _C989      1.000000000000e+00
    edgepairs_((3,_7),_(6,_7))  _C1018     1.000000000000e+00
    edgepairs_((3,_7),_(6,_7))  _C1533     5.000000000000e-01
    edgepairs_((3,_7),_(6,_7))  OBJ        5.000000000000e-01
    MARK      'MARKER'                 'INTEND'
    MARK      'MARKER'                 'INTORG'
    edgepairs_((3,_7),_(7,_9))  _C58       1.000000000000e+00
    edgepairs_((3,_7),_(7,_9))  _C91       1.000000000000e+00
    edgepairs_((3,_7),_(7,_9))  _C203      1.000000000000e+00
    edgepairs_((3,_7),_(7,_9))  _C315      1.000000000000e+00
    edgepairs_((3,_7),_(7,_9))  _C1018     1.000000000000e+00
    edgepairs_((3,_7),_(7,_9))  _C1076     1.000000000000e+00
    edgepairs_((3,_7),_(7,_9))  _C1533     5.000000000000e-01
    edgepairs_((3,_7),_(7,_9))  OBJ        5.000000000000e-01
    MARK      'MARKER'                 'INTEND'
    MARK      'MARKER'                 'INTORG'
    edgepairs_((3,_7),__1)  _C58       1.000000000000e+00
    edgepairs_((3,_7),__1)  _C1533     1.000000000000e+00
    edgepairs_((3,_7),__1)  OBJ        1.000000000000e+00
    MARK      'MARKER'                 'INTEND'
    MARK      'MARKER'                 'INTORG'
    edgepairs_((4,_5),_(19,_20))  _C59       1.000000000000e+00
    edgepairs_((4,_5),_(19,_20))  _C103      1.000000000000e+00
    edgepairs_((4,_5),_(19,_20))  _C243      1.000000000000e+00
    edgepairs_((4,_5),_(19,_20))  _C271      1.000000000000e+00
    edgepairs_((4,_5),_(19,_20))  _C1367     1.000000000000e+00
    edgepairs_((4,_5),_(19,_20))  _C1396     1.000000000000e+00
    MARK      'MARKER'                 'INTEND'
    MARK      'MARKER'                 'INTORG'
    edgepairs_((4,_5),_(21,_22))  _C59       1.000000000000e+00
    edgepairs_((4,_5),_(21,_22))  _C105      1.000000000000e+00
    edgepairs_((4,_5),_(21,_22))  _C245      1.000000000000e+00
    edgepairs_((4,_5),_(21,_22))  _C273      1.000000000000e+00
    edgepairs_((4,_5),_(21,_22))  _C1425     1.000000000000e+00
    edgepairs_((4,_5),_(21,_22))  _C1454     1.000000000000e+00
    MARK      'MARKER'                 'INTEND'
    MARK      'MARKER'                 'INTORG'
    edgepairs_((4,_5),_(22,_23))  _C59       1.000000000000e+00
    edgepairs_((4,_5),_(22,_23))  _C106      1.000000000000e+00
    edgepairs_((4,_5),_(22,_23))  _C246      1.000000000000e+00
    edgepairs_((4,_5),_(22,_23))  _C274      1.000000000000e+00
    edgepairs_((4,_5),_(22,_23))  _C1454     1.000000000000e+00
    edgepairs_((4,_5),_(22,_23))  _C1483     1.000000000000e+00
    MARK      'MARKER'                 'INTEND'
    MARK      'MARKER'                 'INTORG'
    edgepairs_((4,_5),_(23,_24))  _C59       1.000000000000e+00
    edgepairs_((4,_5),_(23,_24))  _C107      1.000000000000e+00
    edgepairs_((4,_5),_(23,_24))  _C247      1.000000000000e+00
    edgepairs_((4,_5),_(23,_24))  _C275      1.000000000000e+00
    edgepairs_((4,_5),_(23,_24))  _C1483     1.000000000000e+00
    edgepairs_((4,_5),_(23,_24))  _C1512     1.000000000000e+00
    edgepairs_((4,_5),_(23,_24))  _C1533     1.000000000000e+00
    edgepairs_((4,_5),_(23,_24))  OBJ        1.000000000000e+00
    MARK      'MARKER'                 'INTEND'
    MARK      'MARKER'                 'INTORG'
    edgepairs_((4,_5),_(7,_8))  _C59       1.000000000000e+00
    edgepairs_((4,_5),_(7,_8))  _C90       1.000000000000e+00
    edgepairs_((4,_5),_(7,_8))  _C230      1.000000000000e+00
    edgepairs_((4,_5),_(7,_8))  _C258      1.000000000000e+00
    edgepairs_((4,_5),_(7,_8))  _C1019     1.000000000000e+00
    edgepairs_((4,_5),_(7,_8))  _C1048     1.000000000000e+00
    MARK      'MARKER'                 'INTEND'
    MARK      'MARKER'                 'INTORG'
    edgepairs_((4,_5),_(9,_10))  _C59       1.000000000000e+00
    edgepairs_((4,_5),_(9,_10))  _C92       1.000000000000e+00
    edgepairs_((4,_5),_(9,_10))  _C232      1.000000000000e+00
    edgepairs_((4,_5),_(9,_10))  _C260      1.000000000000e+00
    edgepairs_((4,_5),_(9,_10))  _C1077     1.000000000000e+00
    edgepairs_((4,_5),_(9,_10))  _C1106     1.000000000000e+00
    MARK      'MARKER'                 'INTEND'
    MARK      'MARKER'                 'INTORG'
    edgepairs_((4,_5),__1)  _C59       1.000000000000e+00
    edgepairs_((4,_5),__1)  _C1533     1.000000000000e+00
    edgepairs_((4,_5),__1)  OBJ        1.000000000000e+00
    MARK      'MARKER'                 'INTEND'
    MARK      'MARKER'                 'INTORG'
    edgepairs_((4,_6),_(19,_20))  _C60       1.000000000000e+00
    edgepairs_((4,_6),_(19,_20))  _C103      1.000000000000e+00
    edgepairs_((4,_6),_(19,_20))  _C243      1.000000000000e+00
    edgepairs_((4,_6),_(19,_20))  _C299      1.000000000000e+00
    edgepairs_((4,_6),_(19,_20))  _C1368     1.000000000000e+00
    edgepairs_((4,_6),_(19,_20))  _C1397     1.000000000000e+00
    edgepairs_((4,_6),_(19,_20))  _C1533     1.000000000000e+00
    edgepairs_((4,_6),_(19,_20))  OBJ        1.000000000000e+00
    MARK      'MARKER'                 'INTEND'
    MARK      'MARKER'                 'INTORG'
    edgepairs_((4,_6),_(21,_22))  _C60       1.000000000000e+00
    edgepairs_((4,_6),_(21,_22))  _C105      1.000000000000e+00
    edgepairs_((4,_6),_(21,_22))  _C245      1.000000000000e+00
    edgepairs_((4,_6),_(21,_22))  _C301      1.000000000000e+00
    edgepairs_((4,_6),_(21,_22))  _C1426     1.000000000000e+00
    edgepairs_((4,_6),_(21,_22))  _C1455     1.000000000000e+00
    edgepairs_((4,_6),_(21,_22))  _C1533     1.000000000000e+00
    edgepairs_((4,_6),_(21,_22))  OBJ        1.000000000000e+00
    MARK      'MARKER'                 'INTEND'
    MARK      'MARKER'                 'INTORG'
    edgepairs_((4,_6),_(22,_23))  _C60       1.000000000000e+00
    edgepairs_((4,_6),_(22,_23))  _C106      1.000000000000e+00
    edgepairs_((4,_6),_(22,_23))  _C246      1.000000000000e+00
    edgepairs_((4,_6),_(22,_23))  _C302      1.000000000000e+00
    edgepairs_((4,_6),_(22,_23))  _C1455     1.000000000000e+00
    edgepairs_((4,_6),_(22,_23))  _C1484     1.000000000000e+00
    edgepairs_((4,_6),_(22,_23))  _C1533     1.000000000000e+00
    edgepairs_((4,_6),_(22,_23))  OBJ        1.000000000000e+00
    MARK      'MARKER'                 'INTEND'
    MARK      'MARKER'                 'INTORG'
    edgepairs_((4,_6),_(23,_24))  _C60       1.000000000000e+00
    edgepairs_((4,_6),_(23,_24))  _C107      1.000000000000e+00
    edgepairs_((4,_6),_(23,_24))  _C247      1.000000000000e+00
    edgepairs_((4,_6),_(23,_24))  _C303      1.000000000000e+00
    edgepairs_((4,_6),_(23,_24))  _C1484     1.000000000000e+00
    edgepairs_((4,_6),_(23,_24))  _C1513     1.000000000000e+00
    MARK      'MARKER'                 'INTEND'
    MARK      'MARKER'                 'INTORG'
    edgepairs_((4,_6),_(7,_8))  _C60       1.000000000000e+00
    edgepairs_((4,_6),_(7,_8))  _C90       1.000000000000e+00
    edgepairs_((4,_6),_(7,_8))  _C230      1.000000000000e+00
    edgepairs_((4,_6),_(7,_8))  _C286      1.000000000000e+00
    edgepairs_((4,_6),_(7,_8))  _C1020     1.000000000000e+00
    edgepairs_((4,_6),_(7,_8))  _C1049     1.000000000000e+00
    edgepairs_((4,_6),_(7,_8))  _C1533     1.000000000000e+00
    edgepairs_((4,_6),_(7,_8))  OBJ        1.000000000000e+00
    MARK      'MARKER'                 'INTEND'
    MARK      'MARKER'                 'INTORG'
    edgepairs_((4,_6),_(9,_10))  _C60       1.000000000000e+00
    edgepairs_((4,_6),_(9,_10))  _C92       1.000000000000e+00
    edgepairs_((4,_6),_(9,_10))  _C232      1.000000000000e+00
    edgepairs_((4,_6),_(9,_10))  _C288      1.000000000000e+00
    edgepairs_((4,_6),_(9,_10))  _C1078     1.000000000000e+00
    edgepairs_((4,_6),_(9,_10))  _C1107     1.000000000000e+00
    edgepairs_((4,_6),_(9,_10))  _C1533     1.000000000000e+00
    edgepairs_((4,_6),_(9,_10))  OBJ        1.000000000000e+00
    MARK      'MARKER'                 'INTEND'
    MARK      'MARKER'                 'INTORG'
    edgepairs_((4,_6),__1)  _C60       1.000000000000e+00
    edgepairs_((4,_6),__1)  _C1533     2.000000000000e+00
    edgepairs_((4,_6),__1)  OBJ        2.000000000000e+00
    MARK      'MARKER'                 'INTEND'
    MARK      'MARKER'                 'INTORG'
    edgepairs_((7,_13),_(0,_1))  _C62       1.000000000000e+00
    edgepairs_((7,_13),_(0,_1))  _C80       1.000000000000e+00
    edgepairs_((7,_13),_(0,_1))  _C304      1.000000000000e+00
    edgepairs_((7,_13),_(0,_1))  _C472      1.000000000000e+00
    edgepairs_((7,_13),_(0,_1))  _C819      1.000000000000e+00
    edgepairs_((7,_13),_(0,_1))  _C848      1.000000000000e+00
    MARK      'MARKER'                 'INTEND'
    MARK      'MARKER'                 'INTORG'
    edgepairs_((7,_13),_(1,_2))  _C62       1.000000000000e+00
    edgepairs_((7,_13),_(1,_2))  _C81       1.000000000000e+00
    edgepairs_((7,_13),_(1,_2))  _C305      1.000000000000e+00
    edgepairs_((7,_13),_(1,_2))  _C473      1.000000000000e+00
    edgepairs_((7,_13),_(1,_2))  _C848      1.000000000000e+00
    edgepairs_((7,_13),_(1,_2))  _C877      1.000000000000e+00
    MARK      'MARKER'                 'INTEND'
    MARK      'MARKER'                 'INTORG'
    edgepairs_((7,_13),_(1,_3))  _C62       1.000000000000e+00
    edgepairs_((7,_13),_(1,_3))  _C82       1.000000000000e+00
    edgepairs_((7,_13),_(1,_3))  _C306      1.000000000000e+00
    edgepairs_((7,_13),_(1,_3))  _C474      1.000000000000e+00
    edgepairs_((7,_13),_(1,_3))  _C848      1.000000000000e+00
    edgepairs_((7,_13),_(1,_3))  _C906      1.000000000000e+00
    MARK      'MARKER'                 'INTEND'
    MARK      'MARKER'                 'INTORG'
    edgepairs_((7,_13),_(11,_12))  _C62       1.000000000000e+00
    edgepairs_((7,_13),_(11,_12))  _C93       1.000000000000e+00
    edgepairs_((7,_13),_(11,_12))  _C317      1.000000000000e+00
    edgepairs_((7,_13),_(11,_12))  _C485      1.000000000000e+00
    edgepairs_((7,_13),_(11,_12))  _C1138     1.000000000000e+00
    edgepairs_((7,_13),_(11,_12))  _C1167     1.000000000000e+00
    MARK      'MARKER'                 'INTEND'
    MARK      'MARKER'                 'INTORG'
    edgepairs_((7,_13),_(11,_18))  _C62       1.000000000000e+00
    edgepairs_((7,_13),_(11,_18))  _C94       1.000000000000e+00
    edgepairs_((7,_13),_(11,_18))  _C318      1.000000000000e+00
    edgepairs_((7,_13),_(11,_18))  _C486      1.000000000000e+00
    edgepairs_((7,_13),_(11,_18))  _C1138     1.000000000000e+00
    edgepairs_((7,_13),_(11,_18))  _C1341     1.000000000000e+00
    MARK      'MARKER'                 'INTEND'
    MARK      'MARKER'                 'INTORG'
    edgepairs_((7,_13),_(11,_23))  _C62       1.000000000000e+00
    edgepairs_((7,_13),_(11,_23))  _C95       1.000000000000e+00
    edgepairs_((7,_13),_(11,_23))  _C319      1.000000000000e+00
    edgepairs_((7,_13),_(11,_23))  _C487      1.000000000000e+00
    edgepairs_((7,_13),_(11,_23))  _C1138     1.000000000000e+00
    edgepairs_((7,_13),_(11,_23))  _C1486     1.000000000000e+00
    MARK      'MARKER'                 'INTEND'
    MARK      'MARKER'                 'INTORG'
    edgepairs_((7,_13),_(12,_13))  _C62       1.000000000000e+00
    edgepairs_((7,_13),_(12,_13))  _C96       1.000000000000e+00
    edgepairs_((7,_13),_(12,_13))  _C320      1.000000000000e+00
    edgepairs_((7,_13),_(12,_13))  _C488      1.000000000000e+00
    edgepairs_((7,_13),_(12,_13))  _C1167     1.000000000000e+00
    edgepairs_((7,_13),_(12,_13))  _C1196     1.000000000000e+00
    MARK      'MARKER'                 'INTEND'
    MARK      'MARKER'                 'INTORG'
    edgepairs_((7,_13),_(13,_14))  _C62       1.000000000000e+00
    edgepairs_((7,_13),_(13,_14))  _C97       1.000000000000e+00
    edgepairs_((7,_13),_(13,_14))  _C321      1.000000000000e+00
    edgepairs_((7,_13),_(13,_14))  _C489      1.000000000000e+00
    edgepairs_((7,_13),_(13,_14))  _C1196     1.000000000000e+00
    edgepairs_((7,_13),_(13,_14))  _C1225     1.000000000000e+00
    MARK      'MARKER'                 'INTEND'
    MARK      'MARKER'                 'INTORG'
    edgepairs_((7,_13),_(14,_15))  _C62       1.000000000000e+00
    edgepairs_((7,_13),_(14,_15))  _C98       1.000000000000e+00
    edgepairs_((7,_13),_(14,_15))  _C322      1.000000000000e+00
    edgepairs_((7,_13),_(14,_15))  _C490      1.000000000000e+00
    edgepairs_((7,_13),_(14,_15))  _C1225     1.000000000000e+00
    edgepairs_((7,_13),_(14,_15))  _C1254     1.000000000000e+00
    MARK      'MARKER'                 'INTEND'
    MARK      'MARKER'                 'INTORG'
    edgepairs_((7,_13),_(15,_16))  _C62       1.000000000000e+00
    edgepairs_((7,_13),_(15,_16))  _C99       1.000000000000e+00
    edgepairs_((7,_13),_(15,_16))  _C323      1.000000000000e+00
    edgepairs_((7,_13),_(15,_16))  _C491      1.000000000000e+00
    edgepairs_((7,_13),_(15,_16))  _C1254     1.000000000000e+00
    edgepairs_((7,_13),_(15,_16))  _C1283     1.000000000000e+00
    MARK      'MARKER'                 'INTEND'
    MARK      'MARKER'                 'INTORG'
    edgepairs_((7,_13),_(15,_17))  _C62       1.000000000000e+00
    edgepairs_((7,_13),_(15,_17))  _C100      1.000000000000e+00
    edgepairs_((7,_13),_(15,_17))  _C324      1.000000000000e+00
    edgepairs_((7,_13),_(15,_17))  _C492      1.000000000000e+00
    edgepairs_((7,_13),_(15,_17))  _C1254     1.000000000000e+00
    edgepairs_((7,_13),_(15,_17))  _C1312     1.000000000000e+00
    MARK      'MARKER'                 'INTEND'
    MARK      'MARKER'                 'INTORG'
    edgepairs_((7,_13),_(15,_18))  _C62       1.000000000000e+00
    edgepairs_((7,_13),_(15,_18))  _C101      1.000000000000e+00
    edgepairs_((7,_13),_(15,_18))  _C325      1.000000000000e+00
    edgepairs_((7,_13),_(15,_18))  _C493      1.000000000000e+00
    edgepairs_((7,_13),_(15,_18))  _C1254     1.000000000000e+00
    edgepairs_((7,_13),_(15,_18))  _C1341     1.000000000000e+00
    MARK      'MARKER'                 'INTEND'
    MARK      'MARKER'                 'INTORG'
    edgepairs_((7,_13),_(18,_19))  _C62       1.000000000000e+00
    edgepairs_((7,_13),_(18,_19))  _C102      1.000000000000e+00
    edgepairs_((7,_13),_(18,_19))  _C326      1.000000000000e+00
    edgepairs_((7,_13),_(18,_19))  _C494      1.000000000000e+00
    edgepairs_((7,_13),_(18,_19))  _C1341     1.000000000000e+00
    edgepairs_((7,_13),_(18,_19))  _C1370     1.000000000000e+00
    MARK      'MARKER'                 'INTEND'
    MARK      'MARKER'                 'INTORG'
    edgepairs_((7,_13),_(19,_21))  _C62       1.000000000000e+00
    edgepairs_((7,_13),_(19,_21))  _C104      1.000000000000e+00
    edgepairs_((7,_13),_(19,_21))  _C328      1.000000000000e+00
    edgepairs_((7,_13),_(19,_21))  _C496      1.000000000000e+00
    edgepairs_((7,_13),_(19,_21))  _C1370     1.000000000000e+00
    edgepairs_((7,_13),_(19,_21))  _C1428     1.000000000000e+00
    MARK      'MARKER'                 'INTEND'
    MARK      'MARKER'                 'INTORG'
    edgepairs_((7,_13),_(3,_4))  _C62       1.000000000000e+00
    edgepairs_((7,_13),_(3,_4))  _C83       1.000000000000e+00
    edgepairs_((7,_13),_(3,_4))  _C307      1.000000000000e+00
    edgepairs_((7,_13),_(3,_4))  _C475      1.000000000000e+00
    edgepairs_((7,_13),_(3,_4))  _C906      1.000000000000e+00
    edgepairs_((7,_13),_(3,_4))  _C935      1.000000000000e+00
    edgepairs_((7,_13),_(3,_4))  _C1533     5.000000000000e-01
    edgepairs_((7,_13),_(3,_4))  OBJ        5.000000000000e-01
    MARK      'MARKER'                 'INTEND'
    MARK      'MARKER'                 'INTORG'
    edgepairs_((7,_13),_(3,_9))  _C62       1.000000000000e+00
    edgepairs_((7,_13),_(3,_9))  _C84       1.000000000000e+00
    edgepairs_((7,_13),_(3,_9))  _C308      1.000000000000e+00
    edgepairs_((7,_13),_(3,_9))  _C476      1.000000000000e+00
    edgepairs_((7,_13),_(3,_9))  _C906      1.000000000000e+00
    edgepairs_((7,_13),_(3,_9))  _C1080     1.000000000000e+00
    edgepairs_((7,_13),_(3,_9))  _C1533     5.000000000000e-01
    edgepairs_((7,_13),_(3,_9))  OBJ        5.000000000000e-01
    MARK      'MARKER'                 'INTEND'
    MARK      'MARKER'                 'INTORG'
    edgepairs_((7,_13),_(4,_5))  _C62       1.000000000000e+00
    edgepairs_((7,_13),_(4,_5))  _C85       1.000000000000e+00
    edgepairs_((7,_13),_(4,_5))  _C309      1.000000000000e+00
    edgepairs_((7,_13),_(4,_5))  _C477      1.000000000000e+00
    edgepairs_((7,_13),_(4,_5))  _C935      1.000000000000e+00
    edgepairs_((7,_13),_(4,_5))  _C964      1.000000000000e+00
    edgepairs_((7,_13),_(4,_5))  _C1533     5.000000000000e-01
    edgepairs_((7,_13),_(4,_5))  OBJ        5.000000000000e-01
    MARK      'MARKER'                 'INTEND'
    MARK      'MARKER'                 'INTORG'
    edgepairs_((7,_13),_(5,_21))  _C62       1.000000000000e+00
    edgepairs_((7,_13),_(5,_21))  _C87       1.000000000000e+00
    edgepairs_((7,_13),_(5,_21))  _C311      1.000000000000e+00
    edgepairs_((7,_13),_(5,_21))  _C479      1.000000000000e+00
    edgepairs_((7,_13),_(5,_21))  _C964      1.000000000000e+00
    edgepairs_((7,_13),_(5,_21))  _C1428     1.000000000000e+00
    MARK      'MARKER'                 'INTEND'
    MARK      'MARKER'                 'INTORG'
    edgepairs_((7,_13),_(5,_6))  _C62       1.000000000000e+00
    edgepairs_((7,_13),_(5,_6))  _C86       1.000000000000e+00
    edgepairs_((7,_13),_(5,_6))  _C310      1.000000000000e+00
    edgepairs_((7,_13),_(5,_6))  _C478      1.000000000000e+00
    edgepairs_((7,_13),_(5,_6))  _C964      1.000000000000e+00
    edgepairs_((7,_13),_(5,_6))  _C993      1.000000000000e+00
    edgepairs_((7,_13),_(5,_6))  _C1533     5.000000000000e-01
    edgepairs_((7,_13),_(5,_6))  OBJ        5.000000000000e-01
    MARK      'MARKER'                 'INTEND'
    MARK      'MARKER'                 'INTORG'
    edgepairs_((7,_13),_(6,_11))  _C62       1.000000000000e+00
    edgepairs_((7,_13),_(6,_11))  _C89       1.000000000000e+00
    edgepairs_((7,_13),_(6,_11))  _C313      1.000000000000e+00
    edgepairs_((7,_13),_(6,_11))  _C481      1.000000000000e+00
    edgepairs_((7,_13),_(6,_11))  _C993      1.000000000000e+00
    edgepairs_((7,_13),_(6,_11))  _C1138     1.000000000000e+00
    MARK      'MARKER'                 'INTEND'
    MARK      'MARKER'                 'INTORG'
    edgepairs_((7,_13),_(6,_7))  _C62       1.000000000000e+00
    edgepairs_((7,_13),_(6,_7))  _C88       1.000000000000e+00
    edgepairs_((7,_13),_(6,_7))  _C312      1.000000000000e+00
    edgepairs_((7,_13),_(6,_7))  _C480      1.000000000000e+00
    edgepairs_((7,_13),_(6,_7))  _C993      1.000000000000e+00
    edgepairs_((7,_13),_(6,_7))  _C1022     1.000000000000e+00
    edgepairs_((7,_13),_(6,_7))  _C1533     5.000000000000e-01
    edgepairs_((7,_13),_(6,_7))  OBJ        5.000000000000e-01
    MARK      'MARKER'                 'INTEND'
    MARK      'MARKER'                 'INTORG'
    edgepairs_((7,_13),_(7,_9))  _C62       1.000000000000e+00
    edgepairs_((7,_13),_(7,_9))  _C91       1.000000000000e+00
    edgepairs_((7,_13),_(7,_9))  _C315      1.000000000000e+00
    edgepairs_((7,_13),_(7,_9))  _C483      1.000000000000e+00
    edgepairs_((7,_13),_(7,_9))  _C1022     1.000000000000e+00
    edgepairs_((7,_13),_(7,_9))  _C1080     1.000000000000e+00
    edgepairs_((7,_13),_(7,_9))  _C1533     5.000000000000e-01
    edgepairs_((7,_13),_(7,_9))  OBJ        5.000000000000e-01
    MARK      'MARKER'                 'INTEND'
    MARK      'MARKER'                 'INTORG'
    edgepairs_((7,_13),__1)  _C62       1.000000000000e+00
    edgepairs_((7,_13),__1)  _C1533     1.000000000000e+00
    edgepairs_((7,_13),__1)  OBJ        1.000000000000e+00
    MARK      'MARKER'                 'INTEND'
    MARK      'MARKER'                 'INTORG'
    edgepairs_((7,_16),_(0,_1))  _C63       1.000000000000e+00
    edgepairs_((7,_16),_(0,_1))  _C80       1.000000000000e+00
    edgepairs_((7,_16),_(0,_1))  _C304      1.000000000000e+00
    edgepairs_((7,_16),_(0,_1))  _C556      1.000000000000e+00
    edgepairs_((7,_16),_(0,_1))  _C820      1.000000000000e+00
    edgepairs_((7,_16),_(0,_1))  _C849      1.000000000000e+00
    MARK      'MARKER'                 'INTEND'
    MARK      'MARKER'                 'INTORG'
    edgepairs_((7,_16),_(1,_2))  _C63       1.000000000000e+00
    edgepairs_((7,_16),_(1,_2))  _C81       1.000000000000e+00
    edgepairs_((7,_16),_(1,_2))  _C305      1.000000000000e+00
    edgepairs_((7,_16),_(1,_2))  _C557      1.000000000000e+00
    edgepairs_((7,_16),_(1,_2))  _C849      1.000000000000e+00
    edgepairs_((7,_16),_(1,_2))  _C878      1.000000000000e+00
    MARK      'MARKER'                 'INTEND'
    MARK      'MARKER'                 'INTORG'
    edgepairs_((7,_16),_(1,_3))  _C63       1.000000000000e+00
    edgepairs_((7,_16),_(1,_3))  _C82       1.000000000000e+00
    edgepairs_((7,_16),_(1,_3))  _C306      1.000000000000e+00
    edgepairs_((7,_16),_(1,_3))  _C558      1.000000000000e+00
    edgepairs_((7,_16),_(1,_3))  _C849      1.000000000000e+00
    edgepairs_((7,_16),_(1,_3))  _C907      1.000000000000e+00
    MARK      'MARKER'                 'INTEND'
    MARK      'MARKER'                 'INTORG'
    edgepairs_((7,_16),_(11,_12))  _C63       1.000000000000e+00
    edgepairs_((7,_16),_(11,_12))  _C93       1.000000000000e+00
    edgepairs_((7,_16),_(11,_12))  _C317      1.000000000000e+00
    edgepairs_((7,_16),_(11,_12))  _C569      1.000000000000e+00
    edgepairs_((7,_16),_(11,_12))  _C1139     1.000000000000e+00
    edgepairs_((7,_16),_(11,_12))  _C1168     1.000000000000e+00
    MARK      'MARKER'                 'INTEND'
    MARK      'MARKER'                 'INTORG'
    edgepairs_((7,_16),_(11,_18))  _C63       1.000000000000e+00
    edgepairs_((7,_16),_(11,_18))  _C94       1.000000000000e+00
    edgepairs_((7,_16),_(11,_18))  _C318      1.000000000000e+00
    edgepairs_((7,_16),_(11,_18))  _C570      1.000000000000e+00
    edgepairs_((7,_16),_(11,_18))  _C1139     1.000000000000e+00
    edgepairs_((7,_16),_(11,_18))  _C1342     1.000000000000e+00
    MARK      'MARKER'                 'INTEND'
    MARK      'MARKER'                 'INTORG'
    edgepairs_((7,_16),_(11,_23))  _C63       1.000000000000e+00
    edgepairs_((7,_16),_(11,_23))  _C95       1.000000000000e+00
    edgepairs_((7,_16),_(11,_23))  _C319      1.000000000000e+00
    edgepairs_((7,_16),_(11,_23))  _C571      1.000000000000e+00
    edgepairs_((7,_16),_(11,_23))  _C1139     1.000000000000e+00
    edgepairs_((7,_16),_(11,_23))  _C1487     1.000000000000e+00
    MARK      'MARKER'                 'INTEND'
    MARK      'MARKER'                 'INTORG'
    edgepairs_((7,_16),_(12,_13))  _C63       1.000000000000e+00
    edgepairs_((7,_16),_(12,_13))  _C96       1.000000000000e+00
    edgepairs_((7,_16),_(12,_13))  _C320      1.000000000000e+00
    edgepairs_((7,_16),_(12,_13))  _C572      1.000000000000e+00
    edgepairs_((7,_16),_(12,_13))  _C1168     1.000000000000e+00
    edgepairs_((7,_16),_(12,_13))  _C1197     1.000000000000e+00
    MARK      'MARKER'                 'INTEND'
    MARK      'MARKER'                 'INTORG'
    edgepairs_((7,_16),_(13,_14))  _C63       1.000000000000e+00
    edgepairs_((7,_16),_(13,_14))  _C97       1.000000000000e+00
    edgepairs_((7,_16),_(13,_14))  _C321      1.000000000000e+00
    edgepairs_((7,_16),_(13,_14))  _C573      1.000000000000e+00
    edgepairs_((7,_16),_(13,_14))  _C1197     1.000000000000e+00
    edgepairs_((7,_16),_(13,_14))  _C1226     1.000000000000e+00
    MARK      'MARKER'                 'INTEND'
    MARK      'MARKER'                 'INTORG'
    edgepairs_((7,_16),_(14,_15))  _C63       1.000000000000e+00
    edgepairs_((7,_16),_(14,_15))  _C98       1.000000000000e+00
    edgepairs_((7,_16),_(14,_15))  _C322      1.000000000000e+00
    edgepairs_((7,_16),_(14,_15))  _C574      1.000000000000e+00
    edgepairs_((7,_16),_(14,_15))  _C1226     1.000000000000e+00
    edgepairs_((7,_16),_(14,_15))  _C1255     1.000000000000e+00
    MARK      'MARKER'                 'INTEND'
    MARK      'MARKER'                 'INTORG'
    edgepairs_((7,_16),_(15,_16))  _C63       1.000000000000e+00
    edgepairs_((7,_16),_(15,_16))  _C99       1.000000000000e+00
    edgepairs_((7,_16),_(15,_16))  _C323      1.000000000000e+00
    edgepairs_((7,_16),_(15,_16))  _C575      1.000000000000e+00
    edgepairs_((7,_16),_(15,_16))  _C1255     1.000000000000e+00
    edgepairs_((7,_16),_(15,_16))  _C1284     1.000000000000e+00
    MARK      'MARKER'                 'INTEND'
    MARK      'MARKER'                 'INTORG'
    edgepairs_((7,_16),_(15,_17))  _C63       1.000000000000e+00
    edgepairs_((7,_16),_(15,_17))  _C100      1.000000000000e+00
    edgepairs_((7,_16),_(15,_17))  _C324      1.000000000000e+00
    edgepairs_((7,_16),_(15,_17))  _C576      1.000000000000e+00
    edgepairs_((7,_16),_(15,_17))  _C1255     1.000000000000e+00
    edgepairs_((7,_16),_(15,_17))  _C1313     1.000000000000e+00
    MARK      'MARKER'                 'INTEND'
    MARK      'MARKER'                 'INTORG'
    edgepairs_((7,_16),_(15,_18))  _C63       1.000000000000e+00
    edgepairs_((7,_16),_(15,_18))  _C101      1.000000000000e+00
    edgepairs_((7,_16),_(15,_18))  _C325      1.000000000000e+00
    edgepairs_((7,_16),_(15,_18))  _C577      1.000000000000e+00
    edgepairs_((7,_16),_(15,_18))  _C1255     1.000000000000e+00
    edgepairs_((7,_16),_(15,_18))  _C1342     1.000000000000e+00
    MARK      'MARKER'                 'INTEND'
    MARK      'MARKER'                 'INTORG'
    edgepairs_((7,_16),_(18,_19))  _C63       1.000000000000e+00
    edgepairs_((7,_16),_(18,_19))  _C102      1.000000000000e+00
    edgepairs_((7,_16),_(18,_19))  _C326      1.000000000000e+00
    edgepairs_((7,_16),_(18,_19))  _C578      1.000000000000e+00
    edgepairs_((7,_16),_(18,_19))  _C1342     1.000000000000e+00
    edgepairs_((7,_16),_(18,_19))  _C1371     1.000000000000e+00
    MARK      'MARKER'                 'INTEND'
    MARK      'MARKER'                 'INTORG'
    edgepairs_((7,_16),_(19,_21))  _C63       1.000000000000e+00
    edgepairs_((7,_16),_(19,_21))  _C104      1.000000000000e+00
    edgepairs_((7,_16),_(19,_21))  _C328      1.000000000000e+00
    edgepairs_((7,_16),_(19,_21))  _C580      1.000000000000e+00
    edgepairs_((7,_16),_(19,_21))  _C1371     1.000000000000e+00
    edgepairs_((7,_16),_(19,_21))  _C1429     1.000000000000e+00
    MARK      'MARKER'                 'INTEND'
    MARK      'MARKER'                 'INTORG'
    edgepairs_((7,_16),_(3,_4))  _C63       1.000000000000e+00
    edgepairs_((7,_16),_(3,_4))  _C83       1.000000000000e+00
    edgepairs_((7,_16),_(3,_4))  _C307      1.000000000000e+00
    edgepairs_((7,_16),_(3,_4))  _C559      1.000000000000e+00
    edgepairs_((7,_16),_(3,_4))  _C907      1.000000000000e+00
    edgepairs_((7,_16),_(3,_4))  _C936      1.000000000000e+00
    edgepairs_((7,_16),_(3,_4))  _C1533     5.000000000000e-01
    edgepairs_((7,_16),_(3,_4))  OBJ        5.000000000000e-01
    MARK      'MARKER'                 'INTEND'
    MARK      'MARKER'                 'INTORG'
    edgepairs_((7,_16),_(3,_9))  _C63       1.000000000000e+00
    edgepairs_((7,_16),_(3,_9))  _C84       1.000000000000e+00
    edgepairs_((7,_16),_(3,_9))  _C308      1.000000000000e+00
    edgepairs_((7,_16),_(3,_9))  _C560      1.000000000000e+00
    edgepairs_((7,_16),_(3,_9))  _C907      1.000000000000e+00
    edgepairs_((7,_16),_(3,_9))  _C1081     1.000000000000e+00
    edgepairs_((7,_16),_(3,_9))  _C1533     5.000000000000e-01
    edgepairs_((7,_16),_(3,_9))  OBJ        5.000000000000e-01
    MARK      'MARKER'                 'INTEND'
    MARK      'MARKER'                 'INTORG'
    edgepairs_((7,_16),_(4,_5))  _C63       1.000000000000e+00
    edgepairs_((7,_16),_(4,_5))  _C85       1.000000000000e+00
    edgepairs_((7,_16),_(4,_5))  _C309      1.000000000000e+00
    edgepairs_((7,_16),_(4,_5))  _C561      1.000000000000e+00
    edgepairs_((7,_16),_(4,_5))  _C936      1.000000000000e+00
    edgepairs_((7,_16),_(4,_5))  _C965      1.000000000000e+00
    edgepairs_((7,_16),_(4,_5))  _C1533     5.000000000000e-01
    edgepairs_((7,_16),_(4,_5))  OBJ        5.000000000000e-01
    MARK      'MARKER'                 'INTEND'
    MARK      'MARKER'                 'INTORG'
    edgepairs_((7,_16),_(5,_21))  _C63       1.000000000000e+00
    edgepairs_((7,_16),_(5,_21))  _C87       1.000000000000e+00
    edgepairs_((7,_16),_(5,_21))  _C311      1.000000000000e+00
    edgepairs_((7,_16),_(5,_21))  _C563      1.000000000000e+00
    edgepairs_((7,_16),_(5,_21))  _C965      1.000000000000e+00
    edgepairs_((7,_16),_(5,_21))  _C1429     1.000000000000e+00
    MARK      'MARKER'                 'INTEND'
    MARK      'MARKER'                 'INTORG'
    edgepairs_((7,_16),_(5,_6))  _C63       1.000000000000e+00
    edgepairs_((7,_16),_(5,_6))  _C86       1.000000000000e+00
    edgepairs_((7,_16),_(5,_6))  _C310      1.000000000000e+00
    edgepairs_((7,_16),_(5,_6))  _C562      1.000000000000e+00
    edgepairs_((7,_16),_(5,_6))  _C965      1.000000000000e+00
    edgepairs_((7,_16),_(5,_6))  _C994      1.000000000000e+00
    edgepairs_((7,_16),_(5,_6))  _C1533     5.000000000000e-01
    edgepairs_((7,_16),_(5,_6))  OBJ        5.000000000000e-01
    MARK      'MARKER'                 'INTEND'
    MARK      'MARKER'                 'INTORG'
    edgepairs_((7,_16),_(6,_11))  _C63       1.000000000000e+00
    edgepairs_((7,_16),_(6,_11))  _C89       1.000000000000e+00
    edgepairs_((7,_16),_(6,_11))  _C313      1.000000000000e+00
    edgepairs_((7,_16),_(6,_11))  _C565      1.000000000000e+00
    edgepairs_((7,_16),_(6,_11))  _C994      1.000000000000e+00
    edgepairs_((7,_16),_(6,_11))  _C1139     1.000000000000e+00
    MARK      'MARKER'                 'INTEND'
    MARK      'MARKER'                 'INTORG'
    edgepairs_((7,_16),_(6,_7))  _C63       1.000000000000e+00
    edgepairs_((7,_16),_(6,_7))  _C88       1.000000000000e+00
    edgepairs_((7,_16),_(6,_7))  _C312      1.000000000000e+00
    edgepairs_((7,_16),_(6,_7))  _C564      1.000000000000e+00
    edgepairs_((7,_16),_(6,_7))  _C994      1.000000000000e+00
    edgepairs_((7,_16),_(6,_7))  _C1023     1.000000000000e+00
    edgepairs_((7,_16),_(6,_7))  _C1533     5.000000000000e-01
    edgepairs_((7,_16),_(6,_7))  OBJ        5.000000000000e-01
    MARK      'MARKER'                 'INTEND'
    MARK      'MARKER'                 'INTORG'
    edgepairs_((7,_16),_(7,_9))  _C63       1.000000000000e+00
    edgepairs_((7,_16),_(7,_9))  _C91       1.000000000000e+00
    edgepairs_((7,_16),_(7,_9))  _C315      1.000000000000e+00
    edgepairs_((7,_16),_(7,_9))  _C567      1.000000000000e+00
    edgepairs_((7,_16),_(7,_9))  _C1023     1.000000000000e+00
    edgepairs_((7,_16),_(7,_9))  _C1081     1.000000000000e+00
    edgepairs_((7,_16),_(7,_9))  _C1533     5.000000000000e-01
    edgepairs_((7,_16),_(7,_9))  OBJ        5.000000000000e-01
    MARK      'MARKER'                 'INTEND'
    MARK      'MARKER'                 'INTORG'
    edgepairs_((7,_16),__1)  _C63       1.000000000000e+00
    edgepairs_((7,_16),__1)  _C1533     1.000000000000e+00
    edgepairs_((7,_16),__1)  OBJ        1.000000000000e+00
    MARK      'MARKER'                 'INTEND'
    MARK      'MARKER'                 'INTORG'
    edgepairs_((7,_8),_(0,_1))  _C61       1.000000000000e+00
    edgepairs_((7,_8),_(0,_1))  _C80       1.000000000000e+00
    edgepairs_((7,_8),_(0,_1))  _C304      1.000000000000e+00
    edgepairs_((7,_8),_(0,_1))  _C332      1.000000000000e+00
    edgepairs_((7,_8),_(0,_1))  _C818      1.000000000000e+00
    edgepairs_((7,_8),_(0,_1))  _C847      1.000000000000e+00
    MARK      'MARKER'                 'INTEND'
    MARK      'MARKER'                 'INTORG'
    edgepairs_((7,_8),_(1,_2))  _C61       1.000000000000e+00
    edgepairs_((7,_8),_(1,_2))  _C81       1.000000000000e+00
    edgepairs_((7,_8),_(1,_2))  _C305      1.000000000000e+00
    edgepairs_((7,_8),_(1,_2))  _C333      1.000000000000e+00
    edgepairs_((7,_8),_(1,_2))  _C847      1.000000000000e+00
    edgepairs_((7,_8),_(1,_2))  _C876      1.000000000000e+00
    MARK      'MARKER'                 'INTEND'
    MARK      'MARKER'                 'INTORG'
    edgepairs_((7,_8),_(1,_3))  _C61       1.000000000000e+00
    edgepairs_((7,_8),_(1,_3))  _C82       1.000000000000e+00
    edgepairs_((7,_8),_(1,_3))  _C306      1.000000000000e+00
    edgepairs_((7,_8),_(1,_3))  _C334      1.000000000000e+00
    edgepairs_((7,_8),_(1,_3))  _C847      1.000000000000e+00
    edgepairs_((7,_8),_(1,_3))  _C905      1.000000000000e+00
    MARK      'MARKER'                 'INTEND'
    MARK      'MARKER'                 'INTORG'
    edgepairs_((7,_8),_(11,_12))  _C61       1.000000000000e+00
    edgepairs_((7,_8),_(11,_12))  _C93       1.000000000000e+00
    edgepairs_((7,_8),_(11,_12))  _C317      1.000000000000e+00
    edgepairs_((7,_8),_(11,_12))  _C345      1.000000000000e+00
    edgepairs_((7,_8),_(11,_12))  _C1137     1.000000000000e+00
    edgepairs_((7,_8),_(11,_12))  _C1166     1.000000000000e+00
    MARK      'MARKER'                 'INTEND'
    MARK      'MARKER'                 'INTORG'
    edgepairs_((7,_8),_(11,_18))  _C61       1.000000000000e+00
    edgepairs_((7,_8),_(11,_18))  _C94       1.000000000000e+00
    edgepairs_((7,_8),_(11,_18))  _C318      1.000000000000e+00
    edgepairs_((7,_8),_(11,_18))  _C346      1.000000000000e+00
    edgepairs_((7,_8),_(11,_18))  _C1137     1.000000000000e+00
    edgepairs_((7,_8),_(11,_18))  _C1340     1.000000000000e+00
    MARK      'MARKER'                 'INTEND'
    MARK      'MARKER'                 'INTORG'
    edgepairs_((7,_8),_(11,_23))  _C61       1.000000000000e+00
    edgepairs_((7,_8),_(11,_23))  _C95       1.000000000000e+00
    edgepairs_((7,_8),_(11,_23))  _C319      1.000000000000e+00
    edgepairs_((7,_8),_(11,_23))  _C347      1.000000000000e+00
    edgepairs_((7,_8),_(11,_23))  _C1137     1.000000000000e+00
    edgepairs_((7,_8),_(11,_23))  _C1485     1.000000000000e+00
    MARK      'MARKER'                 'INTEND'
    MARK      'MARKER'                 'INTORG'
    edgepairs_((7,_8),_(12,_13))  _C61       1.000000000000e+00
    edgepairs_((7,_8),_(12,_13))  _C96       1.000000000000e+00
    edgepairs_((7,_8),_(12,_13))  _C320      1.000000000000e+00
    edgepairs_((7,_8),_(12,_13))  _C348      1.000000000000e+00
    edgepairs_((7,_8),_(12,_13))  _C1166     1.000000000000e+00
    edgepairs_((7,_8),_(12,_13))  _C1195     1.000000000000e+00
    MARK      'MARKER'                 'INTEND'
    MARK      'MARKER'                 'INTORG'
    edgepairs_((7,_8),_(13,_14))  _C61       1.000000000000e+00
    edgepairs_((7,_8),_(13,_14))  _C97       1.000000000000e+00
    edgepairs_((7,_8),_(13,_14))  _C321      1.000000000000e+00
    edgepairs_((7,_8),_(13,_14))  _C349      1.000000000000e+00
    edgepairs_((7,_8),_(13,_14))  _C1195     1.000000000000e+00
    edgepairs_((7,_8),_(13,_14))  _C1224     1.000000000000e+00
    MARK      'MARKER'                 'INTEND'
    MARK      'MARKER'                 'INTORG'
    edgepairs_((7,_8),_(14,_15))  _C61       1.000000000000e+00
    edgepairs_((7,_8),_(14,_15))  _C98       1.000000000000e+00
    edgepairs_((7,_8),_(14,_15))  _C322      1.000000000000e+00
    edgepairs_((7,_8),_(14,_15))  _C350      1.000000000000e+00
    edgepairs_((7,_8),_(14,_15))  _C1224     1.000000000000e+00
    edgepairs_((7,_8),_(14,_15))  _C1253     1.000000000000e+00
    MARK      'MARKER'                 'INTEND'
    MARK      'MARKER'                 'INTORG'
    edgepairs_((7,_8),_(15,_16))  _C61       1.000000000000e+00
    edgepairs_((7,_8),_(15,_16))  _C99       1.000000000000e+00
    edgepairs_((7,_8),_(15,_16))  _C323      1.000000000000e+00
    edgepairs_((7,_8),_(15,_16))  _C351      1.000000000000e+00
    edgepairs_((7,_8),_(15,_16))  _C1253     1.000000000000e+00
    edgepairs_((7,_8),_(15,_16))  _C1282     1.000000000000e+00
    MARK      'MARKER'                 'INTEND'
    MARK      'MARKER'                 'INTORG'
    edgepairs_((7,_8),_(15,_17))  _C61       1.000000000000e+00
    edgepairs_((7,_8),_(15,_17))  _C100      1.000000000000e+00
    edgepairs_((7,_8),_(15,_17))  _C324      1.000000000000e+00
    edgepairs_((7,_8),_(15,_17))  _C352      1.000000000000e+00
    edgepairs_((7,_8),_(15,_17))  _C1253     1.000000000000e+00
    edgepairs_((7,_8),_(15,_17))  _C1311     1.000000000000e+00
    MARK      'MARKER'                 'INTEND'
    MARK      'MARKER'                 'INTORG'
    edgepairs_((7,_8),_(15,_18))  _C61       1.000000000000e+00
    edgepairs_((7,_8),_(15,_18))  _C101      1.000000000000e+00
    edgepairs_((7,_8),_(15,_18))  _C325      1.000000000000e+00
    edgepairs_((7,_8),_(15,_18))  _C353      1.000000000000e+00
    edgepairs_((7,_8),_(15,_18))  _C1253     1.000000000000e+00
    edgepairs_((7,_8),_(15,_18))  _C1340     1.000000000000e+00
    MARK      'MARKER'                 'INTEND'
    MARK      'MARKER'                 'INTORG'
    edgepairs_((7,_8),_(18,_19))  _C61       1.000000000000e+00
    edgepairs_((7,_8),_(18,_19))  _C102      1.000000000000e+00
    edgepairs_((7,_8),_(18,_19))  _C326      1.000000000000e+00
    edgepairs_((7,_8),_(18,_19))  _C354      1.000000000000e+00
    edgepairs_((7,_8),_(18,_19))  _C1340     1.000000000000e+00
    edgepairs_((7,_8),_(18,_19))  _C1369     1.000000000000e+00
    MARK      'MARKER'                 'INTEND'
    MARK      'MARKER'                 'INTORG'
    edgepairs_((7,_8),_(19,_21))  _C61       1.000000000000e+00
    edgepairs_((7,_8),_(19,_21))  _C104      1.000000000000e+00
    edgepairs_((7,_8),_(19,_21))  _C328      1.000000000000e+00
    edgepairs_((7,_8),_(19,_21))  _C356      1.000000000000e+00
    edgepairs_((7,_8),_(19,_21))  _C1369     1.000000000000e+00
    edgepairs_((7,_8),_(19,_21))  _C1427     1.000000000000e+00
    MARK      'MARKER'                 'INTEND'
    MARK      'MARKER'                 'INTORG'
    edgepairs_((7,_8),_(3,_4))  _C61       1.000000000000e+00
    edgepairs_((7,_8),_(3,_4))  _C83       1.000000000000e+00
    edgepairs_((7,_8),_(3,_4))  _C307      1.000000000000e+00
    edgepairs_((7,_8),_(3,_4))  _C335      1.000000000000e+00
    edgepairs_((7,_8),_(3,_4))  _C905      1.000000000000e+00
    edgepairs_((7,_8),_(3,_4))  _C934      1.000000000000e+00
    edgepairs_((7,_8),_(3,_4))  _C1533     5.000000000000e-01
    edgepairs_((7,_8),_(3,_4))  OBJ        5.000000000000e-01
    MARK      'MARKER'                 'INTEND'
    MARK      'MARKER'                 'INTORG'
    edgepairs_((7,_8),_(3,_9))  _C61       1.000000000000e+00
    edgepairs_((7,_8),_(3,_9))  _C84       1.000000000000e+00
    edgepairs_((7,_8),_(3,_9))  _C308      1.000000000000e+00
    edgepairs_((7,_8),_(3,_9))  _C336      1.000000000000e+00
    edgepairs_((7,_8),_(3,_9))  _C905      1.000000000000e+00
    edgepairs_((7,_8),_(3,_9))  _C1079     1.000000000000e+00
    edgepairs_((7,_8),_(3,_9))  _C1533     5.000000000000e-01
    edgepairs_((7,_8),_(3,_9))  OBJ        5.000000000000e-01
    MARK      'MARKER'                 'INTEND'
    MARK      'MARKER'                 'INTORG'
    edgepairs_((7,_8),_(4,_5))  _C61       1.000000000000e+00
    edgepairs_((7,_8),_(4,_5))  _C85       1.000000000000e+00
    edgepairs_((7,_8),_(4,_5))  _C309      1.000000000000e+00
    edgepairs_((7,_8),_(4,_5))  _C337      1.000000000000e+00
    edgepairs_((7,_8),_(4,_5))  _C934      1.000000000000e+00
    edgepairs_((7,_8),_(4,_5))  _C963      1.000000000000e+00
    edgepairs_((7,_8),_(4,_5))  _C1533     5.000000000000e-01
    edgepairs_((7,_8),_(4,_5))  OBJ        5.000000000000e-01
    MARK      'MARKER'                 'INTEND'
    MARK      'MARKER'                 'INTORG'
    edgepairs_((7,_8),_(5,_21))  _C61       1.000000000000e+00
    edgepairs_((7,_8),_(5,_21))  _C87       1.000000000000e+00
    edgepairs_((7,_8),_(5,_21))  _C311      1.000000000000e+00
    edgepairs_((7,_8),_(5,_21))  _C339      1.000000000000e+00
    edgepairs_((7,_8),_(5,_21))  _C963      1.000000000000e+00
    edgepairs_((7,_8),_(5,_21))  _C1427     1.000000000000e+00
    MARK      'MARKER'                 'INTEND'
    MARK      'MARKER'                 'INTORG'
    edgepairs_((7,_8),_(5,_6))  _C61       1.000000000000e+00
    edgepairs_((7,_8),_(5,_6))  _C86       1.000000000000e+00
    edgepairs_((7,_8),_(5,_6))  _C310      1.000000000000e+00
    edgepairs_((7,_8),_(5,_6))  _C338      1.000000000000e+00
    edgepairs_((7,_8),_(5,_6))  _C963      1.000000000000e+00
    edgepairs_((7,_8),_(5,_6))  _C992      1.000000000000e+00
    edgepairs_((7,_8),_(5,_6))  _C1533     5.000000000000e-01
    edgepairs_((7,_8),_(5,_6))  OBJ        5.000000000000e-01
    MARK      'MARKER'                 'INTEND'
    MARK      'MARKER'                 'INTORG'
    edgepairs_((7,_8),_(6,_11))  _C61       1.000000000000e+00
    edgepairs_((7,_8),_(6,_11))  _C89       1.000000000000e+00
    edgepairs_((7,_8),_(6,_11))  _C313      1.000000000000e+00
    edgepairs_((7,_8),_(6,_11))  _C341      1.000000000000e+00
    edgepairs_((7,_8),_(6,_11))  _C992      1.000000000000e+00
    edgepairs_((7,_8),_(6,_11))  _C1137     1.000000000000e+00
    MARK      'MARKER'                 'INTEND'
    MARK      'MARKER'                 'INTORG'
    edgepairs_((7,_8),_(6,_7))  _C61       1.000000000000e+00
    edgepairs_((7,_8),_(6,_7))  _C88       1.000000000000e+00
    edgepairs_((7,_8),_(6,_7))  _C312      1.000000000000e+00
    edgepairs_((7,_8),_(6,_7))  _C340      1.000000000000e+00
    edgepairs_((7,_8),_(6,_7))  _C992      1.000000000000e+00
    edgepairs_((7,_8),_(6,_7))  _C1021     1.000000000000e+00
    edgepairs_((7,_8),_(6,_7))  _C1533     5.000000000000e-01
    edgepairs_((7,_8),_(6,_7))  OBJ        5.000000000000e-01
    MARK      'MARKER'                 'INTEND'
    MARK      'MARKER'                 'INTORG'
    edgepairs_((7,_8),_(7,_9))  _C61       1.000000000000e+00
    edgepairs_((7,_8),_(7,_9))  _C91       1.000000000000e+00
    edgepairs_((7,_8),_(7,_9))  _C315      1.000000000000e+00
    edgepairs_((7,_8),_(7,_9))  _C343      1.000000000000e+00
    edgepairs_((7,_8),_(7,_9))  _C1021     1.000000000000e+00
    edgepairs_((7,_8),_(7,_9))  _C1079     1.000000000000e+00
    edgepairs_((7,_8),_(7,_9))  _C1533     5.000000000000e-01
    edgepairs_((7,_8),_(7,_9))  OBJ        5.000000000000e-01
    MARK      'MARKER'                 'INTEND'
    MARK      'MARKER'                 'INTORG'
    edgepairs_((7,_8),__1)  _C61       1.000000000000e+00
    edgepairs_((7,_8),__1)  _C1533     1.000000000000e+00
    edgepairs_((7,_8),__1)  OBJ        1.000000000000e+00
    MARK      'MARKER'                 'INTEND'
    MARK      'MARKER'                 'INTORG'
    edgepairs_((8,_9),_(0,_1))  _C64       1.000000000000e+00
    edgepairs_((8,_9),_(0,_1))  _C80       1.000000000000e+00
    edgepairs_((8,_9),_(0,_1))  _C332      1.000000000000e+00
    edgepairs_((8,_9),_(0,_1))  _C360      1.000000000000e+00
    edgepairs_((8,_9),_(0,_1))  _C821      1.000000000000e+00
    edgepairs_((8,_9),_(0,_1))  _C850      1.000000000000e+00
    MARK      'MARKER'                 'INTEND'
    MARK      'MARKER'                 'INTORG'
    edgepairs_((8,_9),_(1,_2))  _C64       1.000000000000e+00
    edgepairs_((8,_9),_(1,_2))  _C81       1.000000000000e+00
    edgepairs_((8,_9),_(1,_2))  _C333      1.000000000000e+00
    edgepairs_((8,_9),_(1,_2))  _C361      1.000000000000e+00
    edgepairs_((8,_9),_(1,_2))  _C850      1.000000000000e+00
    edgepairs_((8,_9),_(1,_2))  _C879      1.000000000000e+00
    MARK      'MARKER'                 'INTEND'
    MARK      'MARKER'                 'INTORG'
    edgepairs_((8,_9),_(1,_3))  _C64       1.000000000000e+00
    edgepairs_((8,_9),_(1,_3))  _C82       1.000000000000e+00
    edgepairs_((8,_9),_(1,_3))  _C334      1.000000000000e+00
    edgepairs_((8,_9),_(1,_3))  _C362      1.000000000000e+00
    edgepairs_((8,_9),_(1,_3))  _C850      1.000000000000e+00
    edgepairs_((8,_9),_(1,_3))  _C908      1.000000000000e+00
    MARK      'MARKER'                 'INTEND'
    MARK      'MARKER'                 'INTORG'
    edgepairs_((8,_9),_(11,_12))  _C64       1.000000000000e+00
    edgepairs_((8,_9),_(11,_12))  _C93       1.000000000000e+00
    edgepairs_((8,_9),_(11,_12))  _C345      1.000000000000e+00
    edgepairs_((8,_9),_(11,_12))  _C373      1.000000000000e+00
    edgepairs_((8,_9),_(11,_12))  _C1140     1.000000000000e+00
    edgepairs_((8,_9),_(11,_12))  _C1169     1.000000000000e+00
    MARK      'MARKER'                 'INTEND'
    MARK      'MARKER'                 'INTORG'
    edgepairs_((8,_9),_(11,_18))  _C64       1.000000000000e+00
    edgepairs_((8,_9),_(11,_18))  _C94       1.000000000000e+00
    edgepairs_((8,_9),_(11,_18))  _C346      1.000000000000e+00
    edgepairs_((8,_9),_(11,_18))  _C374      1.000000000000e+00
    edgepairs_((8,_9),_(11,_18))  _C1140     1.000000000000e+00
    edgepairs_((8,_9),_(11,_18))  _C1343     1.000000000000e+00
    MARK      'MARKER'                 'INTEND'
    MARK      'MARKER'                 'INTORG'
    edgepairs_((8,_9),_(11,_23))  _C64       1.000000000000e+00
    edgepairs_((8,_9),_(11,_23))  _C95       1.000000000000e+00
    edgepairs_((8,_9),_(11,_23))  _C347      1.000000000000e+00
    edgepairs_((8,_9),_(11,_23))  _C375      1.000000000000e+00
    edgepairs_((8,_9),_(11,_23))  _C1140     1.000000000000e+00
    edgepairs_((8,_9),_(11,_23))  _C1488     1.000000000000e+00
    MARK      'MARKER'                 'INTEND'
    MARK      'MARKER'                 'INTORG'
    edgepairs_((8,_9),_(12,_13))  _C64       1.000000000000e+00
    edgepairs_((8,_9),_(12,_13))  _C96       1.000000000000e+00
    edgepairs_((8,_9),_(12,_13))  _C348      1.000000000000e+00
    edgepairs_((8,_9),_(12,_13))  _C376      1.000000000000e+00
    edgepairs_((8,_9),_(12,_13))  _C1169     1.000000000000e+00
    edgepairs_((8,_9),_(12,_13))  _C1198     1.000000000000e+00
    MARK      'MARKER'                 'INTEND'
    MARK      'MARKER'                 'INTORG'
    edgepairs_((8,_9),_(13,_14))  _C64       1.000000000000e+00
    edgepairs_((8,_9),_(13,_14))  _C97       1.000000000000e+00
    edgepairs_((8,_9),_(13,_14))  _C349      1.000000000000e+00
    edgepairs_((8,_9),_(13,_14))  _C377      1.000000000000e+00
    edgepairs_((8,_9),_(13,_14))  _C1198     1.000000000000e+00
    edgepairs_((8,_9),_(13,_14))  _C1227     1.000000000000e+00
    MARK      'MARKER'                 'INTEND'
    MARK      'MARKER'                 'INTORG'
    edgepairs_((8,_9),_(14,_15))  _C64       1.000000000000e+00
    edgepairs_((8,_9),_(14,_15))  _C98       1.000000000000e+00
    edgepairs_((8,_9),_(14,_15))  _C350      1.000000000000e+00
    edgepairs_((8,_9),_(14,_15))  _C378      1.000000000000e+00
    edgepairs_((8,_9),_(14,_15))  _C1227     1.000000000000e+00
    edgepairs_((8,_9),_(14,_15))  _C1256     1.000000000000e+00
    MARK      'MARKER'                 'INTEND'
    MARK      'MARKER'                 'INTORG'
    edgepairs_((8,_9),_(15,_16))  _C64       1.000000000000e+00
    edgepairs_((8,_9),_(15,_16))  _C99       1.000000000000e+00
    edgepairs_((8,_9),_(15,_16))  _C351      1.000000000000e+00
    edgepairs_((8,_9),_(15,_16))  _C379      1.000000000000e+00
    edgepairs_((8,_9),_(15,_16))  _C1256     1.000000000000e+00
    edgepairs_((8,_9),_(15,_16))  _C1285     1.000000000000e+00
    MARK      'MARKER'                 'INTEND'
    MARK      'MARKER'                 'INTORG'
    edgepairs_((8,_9),_(15,_17))  _C64       1.000000000000e+00
    edgepairs_((8,_9),_(15,_17))  _C100      1.000000000000e+00
    edgepairs_((8,_9),_(15,_17))  _C352      1.000000000000e+00
    edgepairs_((8,_9),_(15,_17))  _C380      1.000000000000e+00
    edgepairs_((8,_9),_(15,_17))  _C1256     1.000000000000e+00
    edgepairs_((8,_9),_(15,_17))  _C1314     1.000000000000e+00
    MARK      'MARKER'                 'INTEND'
    MARK      'MARKER'                 'INTORG'
    edgepairs_((8,_9),_(15,_18))  _C64       1.000000000000e+00
    edgepairs_((8,_9),_(15,_18))  _C101      1.000000000000e+00
    edgepairs_((8,_9),_(15,_18))  _C353      1.000000000000e+00
    edgepairs_((8,_9),_(15,_18))  _C381      1.000000000000e+00
    edgepairs_((8,_9),_(15,_18))  _C1256     1.000000000000e+00
    edgepairs_((8,_9),_(15,_18))  _C1343     1.000000000000e+00
    MARK      'MARKER'                 'INTEND'
    MARK      'MARKER'                 'INTORG'
    edgepairs_((8,_9),_(18,_19))  _C64       1.000000000000e+00
    edgepairs_((8,_9),_(18,_19))  _C102      1.000000000000e+00
    edgepairs_((8,_9),_(18,_19))  _C354      1.000000000000e+00
    edgepairs_((8,_9),_(18,_19))  _C382      1.000000000000e+00
    edgepairs_((8,_9),_(18,_19))  _C1343     1.000000000000e+00
    edgepairs_((8,_9),_(18,_19))  _C1372     1.000000000000e+00
    MARK      'MARKER'                 'INTEND'
    MARK      'MARKER'                 'INTORG'
    edgepairs_((8,_9),_(19,_21))  _C64       1.000000000000e+00
    edgepairs_((8,_9),_(19,_21))  _C104      1.000000000000e+00
    edgepairs_((8,_9),_(19,_21))  _C356      1.000000000000e+00
    edgepairs_((8,_9),_(19,_21))  _C384      1.000000000000e+00
    edgepairs_((8,_9),_(19,_21))  _C1372     1.000000000000e+00
    edgepairs_((8,_9),_(19,_21))  _C1430     1.000000000000e+00
    MARK      'MARKER'                 'INTEND'
    MARK      'MARKER'                 'INTORG'
    edgepairs_((8,_9),_(3,_4))  _C64       1.000000000000e+00
    edgepairs_((8,_9),_(3,_4))  _C83       1.000000000000e+00
    edgepairs_((8,_9),_(3,_4))  _C335      1.000000000000e+00
    edgepairs_((8,_9),_(3,_4))  _C363      1.000000000000e+00
    edgepairs_((8,_9),_(3,_4))  _C908      1.000000000000e+00
    edgepairs_((8,_9),_(3,_4))  _C937      1.000000000000e+00
    edgepairs_((8,_9),_(3,_4))  _C1533     5.000000000000e-01
    edgepairs_((8,_9),_(3,_4))  OBJ        5.000000000000e-01
    MARK      'MARKER'                 'INTEND'
    MARK      'MARKER'                 'INTORG'
    edgepairs_((8,_9),_(3,_9))  _C64       1.000000000000e+00
    edgepairs_((8,_9),_(3,_9))  _C84       1.000000000000e+00
    edgepairs_((8,_9),_(3,_9))  _C336      1.000000000000e+00
    edgepairs_((8,_9),_(3,_9))  _C364      1.000000000000e+00
    edgepairs_((8,_9),_(3,_9))  _C908      1.000000000000e+00
    edgepairs_((8,_9),_(3,_9))  _C1082     1.000000000000e+00
    edgepairs_((8,_9),_(3,_9))  _C1533     5.000000000000e-01
    edgepairs_((8,_9),_(3,_9))  OBJ        5.000000000000e-01
    MARK      'MARKER'                 'INTEND'
    MARK      'MARKER'                 'INTORG'
    edgepairs_((8,_9),_(4,_5))  _C64       1.000000000000e+00
    edgepairs_((8,_9),_(4,_5))  _C85       1.000000000000e+00
    edgepairs_((8,_9),_(4,_5))  _C337      1.000000000000e+00
    edgepairs_((8,_9),_(4,_5))  _C365      1.000000000000e+00
    edgepairs_((8,_9),_(4,_5))  _C937      1.000000000000e+00
    edgepairs_((8,_9),_(4,_5))  _C966      1.000000000000e+00
    edgepairs_((8,_9),_(4,_5))  _C1533     5.000000000000e-01
    edgepairs_((8,_9),_(4,_5))  OBJ        5.000000000000e-01
    MARK      'MARKER'                 'INTEND'
    MARK      'MARKER'                 'INTORG'
    edgepairs_((8,_9),_(5,_21))  _C64       1.000000000000e+00
    edgepairs_((8,_9),_(5,_21))  _C87       1.000000000000e+00
    edgepairs_((8,_9),_(5,_21))  _C339      1.000000000000e+00
    edgepairs_((8,_9),_(5,_21))  _C367      1.000000000000e+00
    edgepairs_((8,_9),_(5,_21))  _C966      1.000000000000e+00
    edgepairs_((8,_9),_(5,_21))  _C1430     1.000000000000e+00
    MARK      'MARKER'                 'INTEND'
    MARK      'MARKER'                 'INTORG'
    edgepairs_((8,_9),_(5,_6))  _C64       1.000000000000e+00
    edgepairs_((8,_9),_(5,_6))  _C86       1.000000000000e+00
    edgepairs_((8,_9),_(5,_6))  _C338      1.000000000000e+00
    edgepairs_((8,_9),_(5,_6))  _C366      1.000000000000e+00
    edgepairs_((8,_9),_(5,_6))  _C966      1.000000000000e+00
    edgepairs_((8,_9),_(5,_6))  _C995      1.000000000000e+00
    edgepairs_((8,_9),_(5,_6))  _C1533     5.000000000000e-01
    edgepairs_((8,_9),_(5,_6))  OBJ        5.000000000000e-01
    MARK      'MARKER'                 'INTEND'
    MARK      'MARKER'                 'INTORG'
    edgepairs_((8,_9),_(6,_11))  _C64       1.000000000000e+00
    edgepairs_((8,_9),_(6,_11))  _C89       1.000000000000e+00
    edgepairs_((8,_9),_(6,_11))  _C341      1.000000000000e+00
    edgepairs_((8,_9),_(6,_11))  _C369      1.000000000000e+00
    edgepairs_((8,_9),_(6,_11))  _C995      1.000000000000e+00
    edgepairs_((8,_9),_(6,_11))  _C1140     1.000000000000e+00
    MARK      'MARKER'                 'INTEND'
    MARK      'MARKER'                 'INTORG'
    edgepairs_((8,_9),_(6,_7))  _C64       1.000000000000e+00
    edgepairs_((8,_9),_(6,_7))  _C88       1.000000000000e+00
    edgepairs_((8,_9),_(6,_7))  _C340      1.000000000000e+00
    edgepairs_((8,_9),_(6,_7))  _C368      1.000000000000e+00
    edgepairs_((8,_9),_(6,_7))  _C995      1.000000000000e+00
    edgepairs_((8,_9),_(6,_7))  _C1024     1.000000000000e+00
    edgepairs_((8,_9),_(6,_7))  _C1533     5.000000000000e-01
    edgepairs_((8,_9),_(6,_7))  OBJ        5.000000000000e-01
    MARK      'MARKER'                 'INTEND'
    MARK      'MARKER'                 'INTORG'
    edgepairs_((8,_9),_(7,_9))  _C64       1.000000000000e+00
    edgepairs_((8,_9),_(7,_9))  _C91       1.000000000000e+00
    edgepairs_((8,_9),_(7,_9))  _C343      1.000000000000e+00
    edgepairs_((8,_9),_(7,_9))  _C371      1.000000000000e+00
    edgepairs_((8,_9),_(7,_9))  _C1024     1.000000000000e+00
    edgepairs_((8,_9),_(7,_9))  _C1082     1.000000000000e+00
    edgepairs_((8,_9),_(7,_9))  _C1533     5.000000000000e-01
    edgepairs_((8,_9),_(7,_9))  OBJ        5.000000000000e-01
    MARK      'MARKER'                 'INTEND'
    MARK      'MARKER'                 'INTORG'
    edgepairs_((8,_9),__1)  _C64       1.000000000000e+00
    edgepairs_((8,_9),__1)  _C1533     1.000000000000e+00
    edgepairs_((8,_9),__1)  OBJ        1.000000000000e+00
    MARK      'MARKER'                 'INTEND'
    MARK      'MARKER'                 'INTORG'
    edgepairs_((9,_10),_(0,_1))  _C65       1.000000000000e+00
    edgepairs_((9,_10),_(0,_1))  _C80       1.000000000000e+00
    edgepairs_((9,_10),_(0,_1))  _C360      1.000000000000e+00
    edgepairs_((9,_10),_(0,_1))  _C388      1.000000000000e+00
    edgepairs_((9,_10),_(0,_1))  _C822      1.000000000000e+00
    edgepairs_((9,_10),_(0,_1))  _C851      1.000000000000e+00
    edgepairs_((9,_10),_(0,_1))  _C1533     1.000000000000e+00
    edgepairs_((9,_10),_(0,_1))  OBJ        1.000000000000e+00
    MARK      'MARKER'                 'INTEND'
    MARK      'MARKER'                 'INTORG'
    edgepairs_((9,_10),_(1,_2))  _C65       1.000000000000e+00
    edgepairs_((9,_10),_(1,_2))  _C81       1.000000000000e+00
    edgepairs_((9,_10),_(1,_2))  _C361      1.000000000000e+00
    edgepairs_((9,_10),_(1,_2))  _C389      1.000000000000e+00
    edgepairs_((9,_10),_(1,_2))  _C851      1.000000000000e+00
    edgepairs_((9,_10),_(1,_2))  _C880      1.000000000000e+00
    edgepairs_((9,_10),_(1,_2))  _C1533     1.000000000000e+00
    edgepairs_((9,_10),_(1,_2))  OBJ        1.000000000000e+00
    MARK      'MARKER'                 'INTEND'
    MARK      'MARKER'                 'INTORG'
    edgepairs_((9,_10),_(1,_3))  _C65       1.000000000000e+00
    edgepairs_((9,_10),_(1,_3))  _C82       1.000000000000e+00
    edgepairs_((9,_10),_(1,_3))  _C362      1.000000000000e+00
    edgepairs_((9,_10),_(1,_3))  _C390      1.000000000000e+00
    edgepairs_((9,_10),_(1,_3))  _C851      1.000000000000e+00
    edgepairs_((9,_10),_(1,_3))  _C909      1.000000000000e+00
    edgepairs_((9,_10),_(1,_3))  _C1533     1.000000000000e+00
    edgepairs_((9,_10),_(1,_3))  OBJ        1.000000000000e+00
    MARK      'MARKER'                 'INTEND'
    MARK      'MARKER'                 'INTORG'
    edgepairs_((9,_10),_(11,_12))  _C65       1.000000000000e+00
    edgepairs_((9,_10),_(11,_12))  _C93       1.000000000000e+00
    edgepairs_((9,_10),_(11,_12))  _C373      1.000000000000e+00
    edgepairs_((9,_10),_(11,_12))  _C401      1.000000000000e+00
    edgepairs_((9,_10),_(11,_12))  _C1141     1.000000000000e+00
    edgepairs_((9,_10),_(11,_12))  _C1170     1.000000000000e+00
    edgepairs_((9,_10),_(11,_12))  _C1533     1.000000000000e+00
    edgepairs_((9,_10),_(11,_12))  OBJ        1.000000000000e+00
    MARK      'MARKER'                 'INTEND'
    MARK      'MARKER'                 'INTORG'
    edgepairs_((9,_10),_(11,_18))  _C65       1.000000000000e+00
    edgepairs_((9,_10),_(11,_18))  _C94       1.000000000000e+00
    edgepairs_((9,_10),_(11,_18))  _C374      1.000000000000e+00
    edgepairs_((9,_10),_(11,_18))  _C402      1.000000000000e+00
    edgepairs_((9,_10),_(11,_18))  _C1141     1.000000000000e+00
    edgepairs_((9,_10),_(11,_18))  _C1344     1.000000000000e+00
    edgepairs_((9,_10),_(11,_18))  _C1533     1.000000000000e+00
    edgepairs_((9,_10),_(11,_18))  OBJ        1.000000000000e+00
    MARK      'MARKER'                 'INTEND'
    MARK      'MARKER'                 'INTORG'
    edgepairs_((9,_10),_(11,_23))  _C65       1.000000000000e+00
    edgepairs_((9,_10),_(11,_23))  _C95       1.000000000000e+00
    edgepairs_((9,_10),_(11,_23))  _C375      1.000000000000e+00
    edgepairs_((9,_10),_(11,_23))  _C403      1.000000000000e+00
    edgepairs_((9,_10),_(11,_23))  _C1141     1.000000000000e+00
    edgepairs_((9,_10),_(11,_23))  _C1489     1.000000000000e+00
    edgepairs_((9,_10),_(11,_23))  _C1533     1.000000000000e+00
    edgepairs_((9,_10),_(11,_23))  OBJ        1.000000000000e+00
    MARK      'MARKER'                 'INTEND'
    MARK      'MARKER'                 'INTORG'
    edgepairs_((9,_10),_(12,_13))  _C65       1.000000000000e+00
    edgepairs_((9,_10),_(12,_13))  _C96       1.000000000000e+00
    edgepairs_((9,_10),_(12,_13))  _C376      1.000000000000e+00
    edgepairs_((9,_10),_(12,_13))  _C404      1.000000000000e+00
    edgepairs_((9,_10),_(12,_13))  _C1170     1.000000000000e+00
    edgepairs_((9,_10),_(12,_13))  _C1199     1.000000000000e+00
    edgepairs_((9,_10),_(12,_13))  _C1533     1.000000000000e+00
    edgepairs_((9,_10),_(12,_13))  OBJ        1.000000000000e+00
    MARK      'MARKER'                 'INTEND'
    MARK      'MARKER'                 'INTORG'
    edgepairs_((9,_10),_(13,_14))  _C65       1.000000000000e+00
    edgepairs_((9,_10),_(13,_14))  _C97       1.000000000000e+00
    edgepairs_((9,_10),_(13,_14))  _C377      1.000000000000e+00
    edgepairs_((9,_10),_(13,_14))  _C405      1.000000000000e+00
    edgepairs_((9,_10),_(13,_14))  _C1199     1.000000000000e+00
    edgepairs_((9,_10),_(13,_14))  _C1228     1.000000000000e+00
    edgepairs_((9,_10),_(13,_14))  _C1533     1.000000000000e+00
    edgepairs_((9,_10),_(13,_14))  OBJ        1.000000000000e+00
    MARK      'MARKER'                 'INTEND'
    MARK      'MARKER'                 'INTORG'
    edgepairs_((9,_10),_(14,_15))  _C65       1.000000000000e+00
    edgepairs_((9,_10),_(14,_15))  _C98       1.000000000000e+00
    edgepairs_((9,_10),_(14,_15))  _C378      1.000000000000e+00
    edgepairs_((9,_10),_(14,_15))  _C406      1.000000000000e+00
    edgepairs_((9,_10),_(14,_15))  _C1228     1.000000000000e+00
    edgepairs_((9,_10),_(14,_15))  _C1257     1.000000000000e+00
    edgepairs_((9,_10),_(14,_15))  _C1533     1.000000000000e+00
    edgepairs_((9,_10),_(14,_15))  OBJ        1.000000000000e+00
    MARK      'MARKER'                 'INTEND'
    MARK      'MARKER'                 'INTORG'
    edgepairs_((9,_10),_(15,_16))  _C65       1.000000000000e+00
    edgepairs_((9,_10),_(15,_16))  _C99       1.000000000000e+00
    edgepairs_((9,_10),_(15,_16))  _C379      1.000000000000e+00
    edgepairs_((9,_10),_(15,_16))  _C407      1.000000000000e+00
    edgepairs_((9,_10),_(15,_16))  _C1257     1.000000000000e+00
    edgepairs_((9,_10),_(15,_16))  _C1286     1.000000000000e+00
    edgepairs_((9,_10),_(15,_16))  _C1533     1.000000000000e+00
    edgepairs_((9,_10),_(15,_16))  OBJ        1.000000000000e+00
    MARK      'MARKER'                 'INTEND'
    MARK      'MARKER'                 'INTORG'
    edgepairs_((9,_10),_(15,_17))  _C65       1.000000000000e+00
    edgepairs_((9,_10),_(15,_17))  _C100      1.000000000000e+00
    edgepairs_((9,_10),_(15,_17))  _C380      1.000000000000e+00
    edgepairs_((9,_10),_(15,_17))  _C408      1.000000000000e+00
    edgepairs_((9,_10),_(15,_17))  _C1257     1.000000000000e+00
    edgepairs_((9,_10),_(15,_17))  _C1315     1.000000000000e+00
    edgepairs_((9,_10),_(15,_17))  _C1533     1.000000000000e+00
    edgepairs_((9,_10),_(15,_17))  OBJ        1.000000000000e+00
    MARK      'MARKER'                 'INTEND'
    MARK      'MARKER'                 'INTORG'
    edgepairs_((9,_10),_(15,_18))  _C65       1.000000000000e+00
    edgepairs_((9,_10),_(15,_18))  _C101      1.000000000000e+00
    edgepairs_((9,_10),_(15,_18))  _C381      1.000000000000e+00
    edgepairs_((9,_10),_(15,_18))  _C409      1.000000000000e+00
    edgepairs_((9,_10),_(15,_18))  _C1257     1.000000000000e+00
    edgepairs_((9,_10),_(15,_18))  _C1344     1.000000000000e+00
    edgepairs_((9,_10),_(15,_18))  _C1533     1.000000000000e+00
    edgepairs_((9,_10),_(15,_18))  OBJ        1.000000000000e+00
    MARK      'MARKER'                 'INTEND'
    MARK      'MARKER'                 'INTORG'
    edgepairs_((9,_10),_(18,_19))  _C65       1.000000000000e+00
    edgepairs_((9,_10),_(18,_19))  _C102      1.000000000000e+00
    edgepairs_((9,_10),_(18,_19))  _C382      1.000000000000e+00
    edgepairs_((9,_10),_(18,_19))  _C410      1.000000000000e+00
    edgepairs_((9,_10),_(18,_19))  _C1344     1.000000000000e+00
    edgepairs_((9,_10),_(18,_19))  _C1373     1.000000000000e+00
    edgepairs_((9,_10),_(18,_19))  _C1533     1.000000000000e+00
    edgepairs_((9,_10),_(18,_19))  OBJ        1.000000000000e+00
    MARK      'MARKER'                 'INTEND'
    MARK      'MARKER'                 'INTORG'
    edgepairs_((9,_10),_(19,_21))  _C65       1.000000000000e+00
    edgepairs_((9,_10),_(19,_21))  _C104      1.000000000000e+00
    edgepairs_((9,_10),_(19,_21))  _C384      1.000000000000e+00
    edgepairs_((9,_10),_(19,_21))  _C412      1.000000000000e+00
    edgepairs_((9,_10),_(19,_21))  _C1373     1.000000000000e+00
    edgepairs_((9,_10),_(19,_21))  _C1431     1.000000000000e+00
    edgepairs_((9,_10),_(19,_21))  _C1533     1.000000000000e+00
    edgepairs_((9,_10),_(19,_21))  OBJ        1.000000000000e+00
    MARK      'MARKER'                 'INTEND'
    MARK      'MARKER'                 'INTORG'
    edgepairs_((9,_10),_(3,_4))  _C65       1.000000000000e+00
    edgepairs_((9,_10),_(3,_4))  _C83       1.000000000000e+00
    edgepairs_((9,_10),_(3,_4))  _C363      1.000000000000e+00
    edgepairs_((9,_10),_(3,_4))  _C391      1.000000000000e+00
    edgepairs_((9,_10),_(3,_4))  _C909      1.000000000000e+00
    edgepairs_((9,_10),_(3,_4))  _C938      1.000000000000e+00
    edgepairs_((9,_10),_(3,_4))  _C1533     5.000000000000e-01
    edgepairs_((9,_10),_(3,_4))  OBJ        5.000000000000e-01
    MARK      'MARKER'                 'INTEND'
    MARK      'MARKER'                 'INTORG'
    edgepairs_((9,_10),_(3,_9))  _C65       1.000000000000e+00
    edgepairs_((9,_10),_(3,_9))  _C84       1.000000000000e+00
    edgepairs_((9,_10),_(3,_9))  _C364      1.000000000000e+00
    edgepairs_((9,_10),_(3,_9))  _C392      1.000000000000e+00
    edgepairs_((9,_10),_(3,_9))  _C909      1.000000000000e+00
    edgepairs_((9,_10),_(3,_9))  _C1083     1.000000000000e+00
    edgepairs_((9,_10),_(3,_9))  _C1533     5.000000000000e-01
    edgepairs_((9,_10),_(3,_9))  OBJ        5.000000000000e-01
    MARK      'MARKER'                 'INTEND'
    MARK      'MARKER'                 'INTORG'
    edgepairs_((9,_10),_(4,_5))  _C65       1.000000000000e+00
    edgepairs_((9,_10),_(4,_5))  _C85       1.000000000000e+00
    edgepairs_((9,_10),_(4,_5))  _C365      1.000000000000e+00
    edgepairs_((9,_10),_(4,_5))  _C393      1.000000000000e+00
    edgepairs_((9,_10),_(4,_5))  _C938      1.000000000000e+00
    edgepairs_((9,_10),_(4,_5))  _C967      1.000000000000e+00
    edgepairs_((9,_10),_(4,_5))  _C1533     5.000000000000e-01
    edgepairs_((9,_10),_(4,_5))  OBJ        5.000000000000e-01
    MARK      'MARKER'                 'INTEND'
    MARK      'MARKER'                 'INTORG'
    edgepairs_((9,_10),_(5,_21))  _C65       1.000000000000e+00
    edgepairs_((9,_10),_(5,_21))  _C87       1.000000000000e+00
    edgepairs_((9,_10),_(5,_21))  _C367      1.000000000000e+00
    edgepairs_((9,_10),_(5,_21))  _C395      1.000000000000e+00
    edgepairs_((9,_10),_(5,_21))  _C967      1.000000000000e+00
    edgepairs_((9,_10),_(5,_21))  _C1431     1.000000000000e+00
    edgepairs_((9,_10),_(5,_21))  _C1533     1.000000000000e+00
    edgepairs_((9,_10),_(5,_21))  OBJ        1.000000000000e+00
    MARK      'MARKER'                 'INTEND'
    MARK      'MARKER'                 'INTORG'
    edgepairs_((9,_10),_(5,_6))  _C65       1.000000000000e+00
    edgepairs_((9,_10),_(5,_6))  _C86       1.000000000000e+00
    edgepairs_((9,_10),_(5,_6))  _C366      1.000000000000e+00
    edgepairs_((9,_10),_(5,_6))  _C394      1.000000000000e+00
    edgepairs_((9,_10),_(5,_6))  _C967      1.000000000000e+00
    edgepairs_((9,_10),_(5,_6))  _C996      1.000000000000e+00
    edgepairs_((9,_10),_(5,_6))  _C1533     5.000000000000e-01
    edgepairs_((9,_10),_(5,_6))  OBJ        5.000000000000e-01
    MARK      'MARKER'                 'INTEND'
    MARK      'MARKER'                 'INTORG'
    edgepairs_((9,_10),_(6,_11))  _C65       1.000000000000e+00
    edgepairs_((9,_10),_(6,_11))  _C89       1.000000000000e+00
    edgepairs_((9,_10),_(6,_11))  _C369      1.000000000000e+00
    edgepairs_((9,_10),_(6,_11))  _C397      1.000000000000e+00
    edgepairs_((9,_10),_(6,_11))  _C996      1.000000000000e+00
    edgepairs_((9,_10),_(6,_11))  _C1141     1.000000000000e+00
    edgepairs_((9,_10),_(6,_11))  _C1533     1.000000000000e+00
    edgepairs_((9,_10),_(6,_11))  OBJ        1.000000000000e+00
    MARK      'MARKER'                 'INTEND'
    MARK      'MARKER'                 'INTORG'
    edgepairs_((9,_10),_(6,_7))  _C65       1.000000000000e+00
    edgepairs_((9,_10),_(6,_7))  _C88       1.000000000000e+00
    edgepairs_((9,_10),_(6,_7))  _C368      1.000000000000e+00
    edgepairs_((9,_10),_(6,_7))  _C396      1.000000000000e+00
    edgepairs_((9,_10),_(6,_7))  _C996      1.000000000000e+00
    edgepairs_((9,_10),_(6,_7))  _C1025     1.000000000000e+00
    edgepairs_((9,_10),_(6,_7))  _C1533     5.000000000000e-01
    edgepairs_((9,_10),_(6,_7))  OBJ        5.000000000000e-01
    MARK      'MARKER'                 'INTEND'
    MARK      'MARKER'                 'INTORG'
    edgepairs_((9,_10),_(7,_9))  _C65       1.000000000000e+00
    edgepairs_((9,_10),_(7,_9))  _C91       1.000000000000e+00
    edgepairs_((9,_10),_(7,_9))  _C371      1.000000000000e+00
    edgepairs_((9,_10),_(7,_9))  _C399      1.000000000000e+00
    edgepairs_((9,_10),_(7,_9))  _C1025     1.000000000000e+00
    edgepairs_((9,_10),_(7,_9))  _C1083     1.000000000000e+00
    edgepairs_((9,_10),_(7,_9))  _C1533     5.000000000000e-01
    edgepairs_((9,_10),_(7,_9))  OBJ        5.000000000000e-01
    MARK      'MARKER'                 'INTEND'
    MARK      'MARKER'                 'INTORG'
    edgepairs_((9,_10),__1)  _C65       1.000000000000e+00
    edgepairs_((9,_10),__1)  _C1533     2.000000000000e+00
    edgepairs_((9,_10),__1)  OBJ        2.000000000000e+00
    MARK      'MARKER'                 'INTEND'
    MARK      'MARKER'                 'INTORG'
    edgepairs_((9,_11),_(0,_1))  _C66       1.000000000000e+00
    edgepairs_((9,_11),_(0,_1))  _C80       1.000000000000e+00
    edgepairs_((9,_11),_(0,_1))  _C360      1.000000000000e+00
    edgepairs_((9,_11),_(0,_1))  _C416      1.000000000000e+00
    edgepairs_((9,_11),_(0,_1))  _C823      1.000000000000e+00
    edgepairs_((9,_11),_(0,_1))  _C852      1.000000000000e+00
    MARK      'MARKER'                 'INTEND'
    MARK      'MARKER'                 'INTORG'
    edgepairs_((9,_11),_(1,_2))  _C66       1.000000000000e+00
    edgepairs_((9,_11),_(1,_2))  _C81       1.000000000000e+00
    edgepairs_((9,_11),_(1,_2))  _C361      1.000000000000e+00
    edgepairs_((9,_11),_(1,_2))  _C417      1.000000000000e+00
    edgepairs_((9,_11),_(1,_2))  _C852      1.000000000000e+00
    edgepairs_((9,_11),_(1,_2))  _C881      1.000000000000e+00
    MARK      'MARKER'                 'INTEND'
    MARK      'MARKER'                 'INTORG'
    edgepairs_((9,_11),_(1,_3))  _C66       1.000000000000e+00
    edgepairs_((9,_11),_(1,_3))  _C82       1.000000000000e+00
    edgepairs_((9,_11),_(1,_3))  _C362      1.000000000000e+00
    edgepairs_((9,_11),_(1,_3))  _C418      1.000000000000e+00
    edgepairs_((9,_11),_(1,_3))  _C852      1.000000000000e+00
    edgepairs_((9,_11),_(1,_3))  _C910      1.000000000000e+00
    MARK      'MARKER'                 'INTEND'
    MARK      'MARKER'                 'INTORG'
    edgepairs_((9,_11),_(11,_12))  _C66       1.000000000000e+00
    edgepairs_((9,_11),_(11,_12))  _C93       1.000000000000e+00
    edgepairs_((9,_11),_(11,_12))  _C373      1.000000000000e+00
    edgepairs_((9,_11),_(11,_12))  _C429      1.000000000000e+00
    edgepairs_((9,_11),_(11,_12))  _C1142     1.000000000000e+00
    edgepairs_((9,_11),_(11,_12))  _C1171     1.000000000000e+00
    MARK      'MARKER'                 'INTEND'
    MARK      'MARKER'                 'INTORG'
    edgepairs_((9,_11),_(11,_18))  _C66       1.000000000000e+00
    edgepairs_((9,_11),_(11,_18))  _C94       1.000000000000e+00
    edgepairs_((9,_11),_(11,_18))  _C374      1.000000000000e+00
    edgepairs_((9,_11),_(11,_18))  _C430      1.000000000000e+00
    edgepairs_((9,_11),_(11,_18))  _C1142     1.000000000000e+00
    edgepairs_((9,_11),_(11,_18))  _C1345     1.000000000000e+00
    MARK      'MARKER'                 'INTEND'
    MARK      'MARKER'                 'INTORG'
    edgepairs_((9,_11),_(11,_23))  _C66       1.000000000000e+00
    edgepairs_((9,_11),_(11,_23))  _C95       1.000000000000e+00
    edgepairs_((9,_11),_(11,_23))  _C375      1.000000000000e+00
    edgepairs_((9,_11),_(11,_23))  _C431      1.000000000000e+00
    edgepairs_((9,_11),_(11,_23))  _C1142     1.000000000000e+00
    edgepairs_((9,_11),_(11,_23))  _C1490     1.000000000000e+00
    MARK      'MARKER'                 'INTEND'
    MARK      'MARKER'                 'INTORG'
    edgepairs_((9,_11),_(12,_13))  _C66       1.000000000000e+00
    edgepairs_((9,_11),_(12,_13))  _C96       1.000000000000e+00
    edgepairs_((9,_11),_(12,_13))  _C376      1.000000000000e+00
    edgepairs_((9,_11),_(12,_13))  _C432      1.000000000000e+00
    edgepairs_((9,_11),_(12,_13))  _C1171     1.000000000000e+00
    edgepairs_((9,_11),_(12,_13))  _C1200     1.000000000000e+00
    MARK      'MARKER'                 'INTEND'
    MARK      'MARKER'                 'INTORG'
    edgepairs_((9,_11),_(13,_14))  _C66       1.000000000000e+00
    edgepairs_((9,_11),_(13,_14))  _C97       1.000000000000e+00
    edgepairs_((9,_11),_(13,_14))  _C377      1.000000000000e+00
    edgepairs_((9,_11),_(13,_14))  _C433      1.000000000000e+00
    edgepairs_((9,_11),_(13,_14))  _C1200     1.000000000000e+00
    edgepairs_((9,_11),_(13,_14))  _C1229     1.000000000000e+00
    MARK      'MARKER'                 'INTEND'
    MARK      'MARKER'                 'INTORG'
    edgepairs_((9,_11),_(14,_15))  _C66       1.000000000000e+00
    edgepairs_((9,_11),_(14,_15))  _C98       1.000000000000e+00
    edgepairs_((9,_11),_(14,_15))  _C378      1.000000000000e+00
    edgepairs_((9,_11),_(14,_15))  _C434      1.000000000000e+00
    edgepairs_((9,_11),_(14,_15))  _C1229     1.000000000000e+00
    edgepairs_((9,_11),_(14,_15))  _C1258     1.000000000000e+00
    MARK      'MARKER'                 'INTEND'
    MARK      'MARKER'                 'INTORG'
    edgepairs_((9,_11),_(15,_16))  _C66       1.000000000000e+00
    edgepairs_((9,_11),_(15,_16))  _C99       1.000000000000e+00
    edgepairs_((9,_11),_(15,_16))  _C379      1.000000000000e+00
    edgepairs_((9,_11),_(15,_16))  _C435      1.000000000000e+00
    edgepairs_((9,_11),_(15,_16))  _C1258     1.000000000000e+00
    edgepairs_((9,_11),_(15,_16))  _C1287     1.000000000000e+00
    MARK      'MARKER'                 'INTEND'
    MARK      'MARKER'                 'INTORG'
    edgepairs_((9,_11),_(15,_17))  _C66       1.000000000000e+00
    edgepairs_((9,_11),_(15,_17))  _C100      1.000000000000e+00
    edgepairs_((9,_11),_(15,_17))  _C380      1.000000000000e+00
    edgepairs_((9,_11),_(15,_17))  _C436      1.000000000000e+00
    edgepairs_((9,_11),_(15,_17))  _C1258     1.000000000000e+00
    edgepairs_((9,_11),_(15,_17))  _C1316     1.000000000000e+00
    MARK      'MARKER'                 'INTEND'
    MARK      'MARKER'                 'INTORG'
    edgepairs_((9,_11),_(15,_18))  _C66       1.000000000000e+00
    edgepairs_((9,_11),_(15,_18))  _C101      1.000000000000e+00
    edgepairs_((9,_11),_(15,_18))  _C381      1.000000000000e+00
    edgepairs_((9,_11),_(15,_18))  _C437      1.000000000000e+00
    edgepairs_((9,_11),_(15,_18))  _C1258     1.000000000000e+00
    edgepairs_((9,_11),_(15,_18))  _C1345     1.000000000000e+00
    MARK      'MARKER'                 'INTEND'
    MARK      'MARKER'                 'INTORG'
    edgepairs_((9,_11),_(18,_19))  _C66       1.000000000000e+00
    edgepairs_((9,_11),_(18,_19))  _C102      1.000000000000e+00
    edgepairs_((9,_11),_(18,_19))  _C382      1.000000000000e+00
    edgepairs_((9,_11),_(18,_19))  _C438      1.000000000000e+00
    edgepairs_((9,_11),_(18,_19))  _C1345     1.000000000000e+00
    edgepairs_((9,_11),_(18,_19))  _C1374     1.000000000000e+00
    MARK      'MARKER'                 'INTEND'
    MARK      'MARKER'                 'INTORG'
    edgepairs_((9,_11),_(19,_21))  _C66       1.000000000000e+00
    edgepairs_((9,_11),_(19,_21))  _C104      1.000000000000e+00
    edgepairs_((9,_11),_(19,_21))  _C384      1.000000000000e+00
    edgepairs_((9,_11),_(19,_21))  _C440      1.000000000000e+00
    edgepairs_((9,_11),_(19,_21))  _C1374     1.000000000000e+00
    edgepairs_((9,_11),_(19,_21))  _C1432     1.000000000000e+00
    MARK      'MARKER'                 'INTEND'
    MARK      'MARKER'                 'INTORG'
    edgepairs_((9,_11),_(3,_4))  _C66       1.000000000000e+00
    edgepairs_((9,_11),_(3,_4))  _C83       1.000000000000e+00
    edgepairs_((9,_11),_(3,_4))  _C363      1.000000000000e+00
    edgepairs_((9,_11),_(3,_4))  _C419      1.000000000000e+00
    edgepairs_((9,_11),_(3,_4))  _C910      1.000000000000e+00
    edgepairs_((9,_11),_(3,_4))  _C939      1.000000000000e+00
    edgepairs_((9,_11),_(3,_4))  _C1533     5.000000000000e-01
    edgepairs_((9,_11),_(3,_4))  OBJ        5.000000000000e-01
    MARK      'MARKER'                 'INTEND'
    MARK      'MARKER'                 'INTORG'
    edgepairs_((9,_11),_(3,_9))  _C66       1.000000000000e+00
    edgepairs_((9,_11),_(3,_9))  _C84       1.000000000000e+00
    edgepairs_((9,_11),_(3,_9))  _C364      1.000000000000e+00
    edgepairs_((9,_11),_(3,_9))  _C420      1.000000000000e+00
    edgepairs_((9,_11),_(3,_9))  _C910      1.000000000000e+00
    edgepairs_((9,_11),_(3,_9))  _C1084     1.000000000000e+00
    edgepairs_((9,_11),_(3,_9))  _C1533     5.000000000000e-01
    edgepairs_((9,_11),_(3,_9))  OBJ        5.000000000000e-01
    MARK      'MARKER'                 'INTEND'
    MARK      'MARKER'                 'INTORG'
    edgepairs_((9,_11),_(4,_5))  _C66       1.000000000000e+00
    edgepairs_((9,_11),_(4,_5))  _C85       1.000000000000e+00
    edgepairs_((9,_11),_(4,_5))  _C365      1.000000000000e+00
    edgepairs_((9,_11),_(4,_5))  _C421      1.000000000000e+00
    edgepairs_((9,_11),_(4,_5))  _C939      1.000000000000e+00
    edgepairs_((9,_11),_(4,_5))  _C968      1.000000000000e+00
    edgepairs_((9,_11),_(4,_5))  _C1533     5.000000000000e-01
    edgepairs_((9,_11),_(4,_5))  OBJ        5.000000000000e-01
    MARK      'MARKER'                 'INTEND'
    MARK      'MARKER'                 'INTORG'
    edgepairs_((9,_11),_(5,_21))  _C66       1.000000000000e+00
    edgepairs_((9,_11),_(5,_21))  _C87       1.000000000000e+00
    edgepairs_((9,_11),_(5,_21))  _C367      1.000000000000e+00
    edgepairs_((9,_11),_(5,_21))  _C423      1.000000000000e+00
    edgepairs_((9,_11),_(5,_21))  _C968      1.000000000000e+00
    edgepairs_((9,_11),_(5,_21))  _C1432     1.000000000000e+00
    MARK      'MARKER'                 'INTEND'
    MARK      'MARKER'                 'INTORG'
    edgepairs_((9,_11),_(5,_6))  _C66       1.000000000000e+00
    edgepairs_((9,_11),_(5,_6))  _C86       1.000000000000e+00
    edgepairs_((9,_11),_(5,_6))  _C366      1.000000000000e+00
    edgepairs_((9,_11),_(5,_6))  _C422      1.000000000000e+00
    edgepairs_((9,_11),_(5,_6))  _C968      1.000000000000e+00
    edgepairs_((9,_11),_(5,_6))  _C997      1.000000000000e+00
    edgepairs_((9,_11),_(5,_6))  _C1533     5.000000000000e-01
    edgepairs_((9,_11),_(5,_6))  OBJ        5.000000000000e-01
    MARK      'MARKER'                 'INTEND'
    MARK      'MARKER'                 'INTORG'
    edgepairs_((9,_11),_(6,_11))  _C66       1.000000000000e+00
    edgepairs_((9,_11),_(6,_11))  _C89       1.000000000000e+00
    edgepairs_((9,_11),_(6,_11))  _C369      1.000000000000e+00
    edgepairs_((9,_11),_(6,_11))  _C425      1.000000000000e+00
    edgepairs_((9,_11),_(6,_11))  _C997      1.000000000000e+00
    edgepairs_((9,_11),_(6,_11))  _C1142     1.000000000000e+00
    MARK      'MARKER'                 'INTEND'
    MARK      'MARKER'                 'INTORG'
    edgepairs_((9,_11),_(6,_7))  _C66       1.000000000000e+00
    edgepairs_((9,_11),_(6,_7))  _C88       1.000000000000e+00
    edgepairs_((9,_11),_(6,_7))  _C368      1.000000000000e+00
    edgepairs_((9,_11),_(6,_7))  _C424      1.000000000000e+00
    edgepairs_((9,_11),_(6,_7))  _C997      1.000000000000e+00
    edgepairs_((9,_11),_(6,_7))  _C1026     1.000000000000e+00
    edgepairs_((9,_11),_(6,_7))  _C1533     5.000000000000e-01
    edgepairs_((9,_11),_(6,_7))  OBJ        5.000000000000e-01
    MARK      'MARKER'                 'INTEND'
    MARK      'MARKER'                 'INTORG'
    edgepairs_((9,_11),_(7,_9))  _C66       1.000000000000e+00
    edgepairs_((9,_11),_(7,_9))  _C91       1.000000000000e+00
    edgepairs_((9,_11),_(7,_9))  _C371      1.000000000000e+00
    edgepairs_((9,_11),_(7,_9))  _C427      1.000000000000e+00
    edgepairs_((9,_11),_(7,_9))  _C1026     1.000000000000e+00
    edgepairs_((9,_11),_(7,_9))  _C1084     1.000000000000e+00
    edgepairs_((9,_11),_(7,_9))  _C1533     5.000000000000e-01
    edgepairs_((9,_11),_(7,_9))  OBJ        5.000000000000e-01
    MARK      'MARKER'                 'INTEND'
    MARK      'MARKER'                 'INTORG'
    edgepairs_((9,_11),__1)  _C66       1.000000000000e+00
    edgepairs_((9,_11),__1)  _C1533     1.000000000000e+00
    edgepairs_((9,_11),__1)  OBJ        1.000000000000e+00
    MARK      'MARKER'                 'INTEND'
    MARK      'MARKER'                 'INTORG'
    edgepairs_(_1,_(0,_1))  _C80       1.000000000000e+00
    edgepairs_(_1,_(0,_1))  _C1533     1.000000000000e+00
    edgepairs_(_1,_(0,_1))  OBJ        1.000000000000e+00
    MARK      'MARKER'                 'INTEND'
    MARK      'MARKER'                 'INTORG'
    edgepairs_(_1,_(1,_2))  _C81       1.000000000000e+00
    edgepairs_(_1,_(1,_2))  _C1533     1.000000000000e+00
    edgepairs_(_1,_(1,_2))  OBJ        1.000000000000e+00
    MARK      'MARKER'                 'INTEND'
    MARK      'MARKER'                 'INTORG'
    edgepairs_(_1,_(1,_3))  _C82       1.000000000000e+00
    edgepairs_(_1,_(1,_3))  _C1533     1.000000000000e+00
    edgepairs_(_1,_(1,_3))  OBJ        1.000000000000e+00
    MARK      'MARKER'                 'INTEND'
    MARK      'MARKER'                 'INTORG'
    edgepairs_(_1,_(11,_12))  _C93       1.000000000000e+00
    edgepairs_(_1,_(11,_12))  _C1533     1.000000000000e+00
    edgepairs_(_1,_(11,_12))  OBJ        1.000000000000e+00
    MARK      'MARKER'                 'INTEND'
    MARK      'MARKER'                 'INTORG'
    edgepairs_(_1,_(11,_18))  _C94       1.000000000000e+00
    edgepairs_(_1,_(11,_18))  _C1533     1.000000000000e+00
    edgepairs_(_1,_(11,_18))  OBJ        1.000000000000e+00
    MARK      'MARKER'                 'INTEND'
    MARK      'MARKER'                 'INTORG'
    edgepairs_(_1,_(11,_23))  _C95       1.000000000000e+00
    edgepairs_(_1,_(11,_23))  _C1533     1.000000000000e+00
    edgepairs_(_1,_(11,_23))  OBJ        1.000000000000e+00
    MARK      'MARKER'                 'INTEND'
    MARK      'MARKER'                 'INTORG'
    edgepairs_(_1,_(12,_13))  _C96       1.000000000000e+00
    edgepairs_(_1,_(12,_13))  _C1533     1.000000000000e+00
    edgepairs_(_1,_(12,_13))  OBJ        1.000000000000e+00
    MARK      'MARKER'                 'INTEND'
    MARK      'MARKER'                 'INTORG'
    edgepairs_(_1,_(13,_14))  _C97       1.000000000000e+00
    edgepairs_(_1,_(13,_14))  _C1533     1.000000000000e+00
    edgepairs_(_1,_(13,_14))  OBJ        1.000000000000e+00
    MARK      'MARKER'                 'INTEND'
    MARK      'MARKER'                 'INTORG'
    edgepairs_(_1,_(14,_15))  _C98       1.000000000000e+00
    edgepairs_(_1,_(14,_15))  _C1533     1.000000000000e+00
    edgepairs_(_1,_(14,_15))  OBJ        1.000000000000e+00
    MARK      'MARKER'                 'INTEND'
    MARK      'MARKER'                 'INTORG'
    edgepairs_(_1,_(15,_16))  _C99       1.000000000000e+00
    edgepairs_(_1,_(15,_16))  _C1533     1.000000000000e+00
    edgepairs_(_1,_(15,_16))  OBJ        1.000000000000e+00
    MARK      'MARKER'                 'INTEND'
    MARK      'MARKER'                 'INTORG'
    edgepairs_(_1,_(15,_17))  _C100      1.000000000000e+00
    edgepairs_(_1,_(15,_17))  _C1533     1.000000000000e+00
    edgepairs_(_1,_(15,_17))  OBJ        1.000000000000e+00
    MARK      'MARKER'                 'INTEND'
    MARK      'MARKER'                 'INTORG'
    edgepairs_(_1,_(15,_18))  _C101      1.000000000000e+00
    edgepairs_(_1,_(15,_18))  _C1533     1.000000000000e+00
    edgepairs_(_1,_(15,_18))  OBJ        1.000000000000e+00
    MARK      'MARKER'                 'INTEND'
    MARK      'MARKER'                 'INTORG'
    edgepairs_(_1,_(18,_19))  _C102      1.000000000000e+00
    edgepairs_(_1,_(18,_19))  _C1533     1.000000000000e+00
    edgepairs_(_1,_(18,_19))  OBJ        1.000000000000e+00
    MARK      'MARKER'                 'INTEND'
    MARK      'MARKER'                 'INTORG'
    edgepairs_(_1,_(19,_20))  _C103      1.000000000000e+00
    edgepairs_(_1,_(19,_20))  _C1533     1.000000000000e+00
    edgepairs_(_1,_(19,_20))  OBJ        1.000000000000e+00
    MARK      'MARKER'                 'INTEND'
    MARK      'MARKER'                 'INTORG'
    edgepairs_(_1,_(19,_21))  _C104      1.000000000000e+00
    edgepairs_(_1,_(19,_21))  _C1533     1.000000000000e+00
    edgepairs_(_1,_(19,_21))  OBJ        1.000000000000e+00
    MARK      'MARKER'                 'INTEND'
    MARK      'MARKER'                 'INTORG'
    edgepairs_(_1,_(21,_22))  _C105      1.000000000000e+00
    edgepairs_(_1,_(21,_22))  _C1533     1.000000000000e+00
    edgepairs_(_1,_(21,_22))  OBJ        1.000000000000e+00
    MARK      'MARKER'                 'INTEND'
    MARK      'MARKER'                 'INTORG'
    edgepairs_(_1,_(22,_23))  _C106      1.000000000000e+00
    edgepairs_(_1,_(22,_23))  _C1533     1.000000000000e+00
    edgepairs_(_1,_(22,_23))  OBJ        1.000000000000e+00
    MARK      'MARKER'                 'INTEND'
    MARK      'MARKER'                 'INTORG'
    edgepairs_(_1,_(23,_24))  _C107      1.000000000000e+00
    edgepairs_(_1,_(23,_24))  _C1533     2.000000000000e+00
    edgepairs_(_1,_(23,_24))  OBJ        2.000000000000e+00
    MARK      'MARKER'                 'INTEND'
    MARK      'MARKER'                 'INTORG'
    edgepairs_(_1,_(3,_4))  _C83       1.000000000000e+00
    edgepairs_(_1,_(3,_4))  _C1533     1.500000000000e+00
    edgepairs_(_1,_(3,_4))  OBJ        1.500000000000e+00
    MARK      'MARKER'                 'INTEND'
    MARK      'MARKER'                 'INTORG'
    edgepairs_(_1,_(3,_9))  _C84       1.000000000000e+00
    edgepairs_(_1,_(3,_9))  _C1533     1.500000000000e+00
    edgepairs_(_1,_(3,_9))  OBJ        1.500000000000e+00
    MARK      'MARKER'                 'INTEND'
    MARK      'MARKER'                 'INTORG'
    edgepairs_(_1,_(4,_5))  _C85       1.000000000000e+00
    edgepairs_(_1,_(4,_5))  _C1533     1.500000000000e+00
    edgepairs_(_1,_(4,_5))  OBJ        1.500000000000e+00
    MARK      'MARKER'                 'INTEND'
    MARK      'MARKER'                 'INTORG'
    edgepairs_(_1,_(5,_21))  _C87       1.000000000000e+00
    edgepairs_(_1,_(5,_21))  _C1533     1.000000000000e+00
    edgepairs_(_1,_(5,_21))  OBJ        1.000000000000e+00
    MARK      'MARKER'                 'INTEND'
    MARK      'MARKER'                 'INTORG'
    edgepairs_(_1,_(5,_6))  _C86       1.000000000000e+00
    edgepairs_(_1,_(5,_6))  _C1533     1.500000000000e+00
    edgepairs_(_1,_(5,_6))  OBJ        1.500000000000e+00
    MARK      'MARKER'                 'INTEND'
    MARK      'MARKER'                 'INTORG'
    edgepairs_(_1,_(6,_11))  _C89       1.000000000000e+00
    edgepairs_(_1,_(6,_11))  _C1533     1.000000000000e+00
    edgepairs_(_1,_(6,_11))  OBJ        1.000000000000e+00
    MARK      'MARKER'                 'INTEND'
    MARK      'MARKER'                 'INTORG'
    edgepairs_(_1,_(6,_7))  _C88       1.000000000000e+00
    edgepairs_(_1,_(6,_7))  _C1533     1.500000000000e+00
    edgepairs_(_1,_(6,_7))  OBJ        1.500000000000e+00
    MARK      'MARKER'                 'INTEND'
    MARK      'MARKER'                 'INTORG'
    edgepairs_(_1,_(7,_8))  _C90       1.000000000000e+00
    edgepairs_(_1,_(7,_8))  _C1533     1.000000000000e+00
    edgepairs_(_1,_(7,_8))  OBJ        1.000000000000e+00
    MARK      'MARKER'                 'INTEND'
    MARK      'MARKER'                 'INTORG'
    edgepairs_(_1,_(7,_9))  _C91       1.000000000000e+00
    edgepairs_(_1,_(7,_9))  _C1533     1.500000000000e+00
    edgepairs_(_1,_(7,_9))  OBJ        1.500000000000e+00
    MARK      'MARKER'                 'INTEND'
    MARK      'MARKER'                 'INTORG'
    edgepairs_(_1,_(9,_10))  _C92       1.000000000000e+00
    edgepairs_(_1,_(9,_10))  _C1533     1.000000000000e+00
    edgepairs_(_1,_(9,_10))  OBJ        1.000000000000e+00
    MARK      'MARKER'                 'INTEND'
    MARK      'MARKER'                 'INTORG'
    nodepairs_(0,_0)  _C1        1.000000000000e+00
    nodepairs_(0,_0)  _C26       1.000000000000e+00
    nodepairs_(0,_0)  _C108     -1.000000000000e+00
    nodepairs_(0,_0)  _C808     -1.000000000000e+00
    MARK      'MARKER'                 'INTEND'
    MARK      'MARKER'                 'INTORG'
    nodepairs_(0,_1)  _C1        1.000000000000e+00
    nodepairs_(0,_1)  _C27       1.000000000000e+00
    nodepairs_(0,_1)  _C108     -1.000000000000e+00
    nodepairs_(0,_1)  _C109     -1.000000000000e+00
    nodepairs_(0,_1)  _C110     -1.000000000000e+00
    nodepairs_(0,_1)  _C837     -1.000000000000e+00
    MARK      'MARKER'                 'INTEND'
    MARK      'MARKER'                 'INTORG'
    nodepairs_(0,_11)  _C1        1.000000000000e+00
    nodepairs_(0,_11)  _C37       1.000000000000e+00
    nodepairs_(0,_11)  _C117     -1.000000000000e+00
    nodepairs_(0,_11)  _C121     -1.000000000000e+00
    nodepairs_(0,_11)  _C122     -1.000000000000e+00
    nodepairs_(0,_11)  _C123     -1.000000000000e+00
    nodepairs_(0,_11)  _C1127    -1.000000000000e+00
    MARK      'MARKER'                 'INTEND'
    MARK      'MARKER'                 'INTORG'
    nodepairs_(0,_12)  _C1        1.000000000000e+00
    nodepairs_(0,_12)  _C38       1.000000000000e+00
    nodepairs_(0,_12)  _C121     -1.000000000000e+00
    nodepairs_(0,_12)  _C124     -1.000000000000e+00
    nodepairs_(0,_12)  _C1156    -1.000000000000e+00
    MARK      'MARKER'                 'INTEND'
    MARK      'MARKER'                 'INTORG'
    nodepairs_(0,_13)  _C1        1.000000000000e+00
    nodepairs_(0,_13)  _C39       1.000000000000e+00
    nodepairs_(0,_13)  _C124     -1.000000000000e+00
    nodepairs_(0,_13)  _C125     -1.000000000000e+00
    nodepairs_(0,_13)  _C1185    -1.000000000000e+00
    MARK      'MARKER'                 'INTEND'
    MARK      'MARKER'                 'INTORG'
    nodepairs_(0,_14)  _C1        1.000000000000e+00
    nodepairs_(0,_14)  _C40       1.000000000000e+00
    nodepairs_(0,_14)  _C125     -1.000000000000e+00
    nodepairs_(0,_14)  _C126     -1.000000000000e+00
    nodepairs_(0,_14)  _C1214    -1.000000000000e+00
    MARK      'MARKER'                 'INTEND'
    MARK      'MARKER'                 'INTORG'
    nodepairs_(0,_15)  _C1        1.000000000000e+00
    nodepairs_(0,_15)  _C41       1.000000000000e+00
    nodepairs_(0,_15)  _C126     -1.000000000000e+00
    nodepairs_(0,_15)  _C127     -1.000000000000e+00
    nodepairs_(0,_15)  _C128     -1.000000000000e+00
    nodepairs_(0,_15)  _C129     -1.000000000000e+00
    nodepairs_(0,_15)  _C1243    -1.000000000000e+00
    MARK      'MARKER'                 'INTEND'
    MARK      'MARKER'                 'INTORG'
    nodepairs_(0,_16)  _C1        1.000000000000e+00
    nodepairs_(0,_16)  _C42       1.000000000000e+00
    nodepairs_(0,_16)  _C127     -1.000000000000e+00
    nodepairs_(0,_16)  _C1272    -1.000000000000e+00
    MARK      'MARKER'                 'INTEND'
    MARK      'MARKER'                 'INTORG'
    nodepairs_(0,_17)  _C1        1.000000000000e+00
    nodepairs_(0,_17)  _C43       1.000000000000e+00
    nodepairs_(0,_17)  _C128     -1.000000000000e+00
    nodepairs_(0,_17)  _C1301    -1.000000000000e+00
    MARK      'MARKER'                 'INTEND'
    MARK      'MARKER'                 'INTORG'
    nodepairs_(0,_18)  _C1        1.000000000000e+00
    nodepairs_(0,_18)  _C44       1.000000000000e+00
    nodepairs_(0,_18)  _C122     -1.000000000000e+00
    nodepairs_(0,_18)  _C129     -1.000000000000e+00
    nodepairs_(0,_18)  _C130     -1.000000000000e+00
    nodepairs_(0,_18)  _C1330    -1.000000000000e+00
    MARK      'MARKER'                 'INTEND'
    MARK      'MARKER'                 'INTORG'
    nodepairs_(0,_19)  _C1        1.000000000000e+00
    nodepairs_(0,_19)  _C45       1.000000000000e+00
    nodepairs_(0,_19)  _C130     -1.000000000000e+00
    nodepairs_(0,_19)  _C131     -1.000000000000e+00
    nodepairs_(0,_19)  _C132     -1.000000000000e+00
    nodepairs_(0,_19)  _C1359    -1.000000000000e+00
    MARK      'MARKER'                 'INTEND'
    MARK      'MARKER'                 'INTORG'
    nodepairs_(0,_2)  _C1        1.000000000000e+00
    nodepairs_(0,_2)  _C28       1.000000000000e+00
    nodepairs_(0,_2)  _C109     -1.000000000000e+00
    nodepairs_(0,_2)  _C866     -1.000000000000e+00
    MARK      'MARKER'                 'INTEND'
    MARK      'MARKER'                 'INTORG'
    nodepairs_(0,_21)  _C1        1.000000000000e+00
    nodepairs_(0,_21)  _C47       1.000000000000e+00
    nodepairs_(0,_21)  _C115     -1.000000000000e+00
    nodepairs_(0,_21)  _C132     -1.000000000000e+00
    nodepairs_(0,_21)  _C133     -1.000000000000e+00
    nodepairs_(0,_21)  _C1417    -1.000000000000e+00
    MARK      'MARKER'                 'INTEND'
    MARK      'MARKER'                 'INTORG'
    nodepairs_(0,_23)  _C1        1.000000000000e+00
    nodepairs_(0,_23)  _C49       1.000000000000e+00
    nodepairs_(0,_23)  _C123     -1.000000000000e+00
    nodepairs_(0,_23)  _C134     -1.000000000000e+00
    nodepairs_(0,_23)  _C135     -1.000000000000e+00
    nodepairs_(0,_23)  _C1475    -1.000000000000e+00
    MARK      'MARKER'                 'INTEND'
    MARK      'MARKER'                 'INTORG'
    nodepairs_(0,_3)  _C1        1.000000000000e+00
    nodepairs_(0,_3)  _C29       1.000000000000e+00
    nodepairs_(0,_3)  _C110     -1.000000000000e+00
    nodepairs_(0,_3)  _C111     -1.000000000000e+00
    nodepairs_(0,_3)  _C112     -1.000000000000e+00
    nodepairs_(0,_3)  _C895     -1.000000000000e+00
    MARK      'MARKER'                 'INTEND'
    MARK      'MARKER'                 'INTORG'
    nodepairs_(0,_4)  _C1        1.000000000000e+00
    nodepairs_(0,_4)  _C30       1.000000000000e+00
    nodepairs_(0,_4)  _C111     -1.000000000000e+00
    nodepairs_(0,_4)  _C113     -1.000000000000e+00
    nodepairs_(0,_4)  _C924     -1.000000000000e+00
    MARK      'MARKER'                 'INTEND'
    MARK      'MARKER'                 'INTORG'
    nodepairs_(0,_5)  _C1        1.000000000000e+00
    nodepairs_(0,_5)  _C31       1.000000000000e+00
    nodepairs_(0,_5)  _C113     -1.000000000000e+00
    nodepairs_(0,_5)  _C114     -1.000000000000e+00
    nodepairs_(0,_5)  _C115     -1.000000000000e+00
    nodepairs_(0,_5)  _C953     -1.000000000000e+00
    MARK      'MARKER'                 'INTEND'
    MARK      'MARKER'                 'INTORG'
    nodepairs_(0,_6)  _C1        1.000000000000e+00
    nodepairs_(0,_6)  _C32       1.000000000000e+00
    nodepairs_(0,_6)  _C114     -1.000000000000e+00
    nodepairs_(0,_6)  _C116     -1.000000000000e+00
    nodepairs_(0,_6)  _C117     -1.000000000000e+00
    nodepairs_(0,_6)  _C982     -1.000000000000e+00
    MARK      'MARKER'                 'INTEND'
    MARK      'MARKER'                 'INTORG'
    nodepairs_(0,_7)  _C1        1.000000000000e+00
    nodepairs_(0,_7)  _C33       1.000000000000e+00
    nodepairs_(0,_7)  _C116     -1.000000000000e+00
    nodepairs_(0,_7)  _C118     -1.000000000000e+00
    nodepairs_(0,_7)  _C119     -1.000000000000e+00
    nodepairs_(0,_7)  _C1011    -1.000000000000e+00
    MARK      'MARKER'                 'INTEND'
    MARK      'MARKER'                 'INTORG'
    nodepairs_(0,_9)  _C1        1.000000000000e+00
    nodepairs_(0,_9)  _C35       1.000000000000e+00
    nodepairs_(0,_9)  _C112     -1.000000000000e+00
    nodepairs_(0,_9)  _C119     -1.000000000000e+00
    nodepairs_(0,_9)  _C120     -1.000000000000e+00
    nodepairs_(0,_9)  _C1069    -1.000000000000e+00
    MARK      'MARKER'                 'INTEND'
    MARK      'MARKER'                 'INTORG'
    nodepairs_(1,_0)  _C2        1.000000000000e+00
    nodepairs_(1,_0)  _C26       1.000000000000e+00
    nodepairs_(1,_0)  _C136     -1.000000000000e+00
    nodepairs_(1,_0)  _C808     -1.000000000000e+00
    nodepairs_(1,_0)  _C809     -1.000000000000e+00
    nodepairs_(1,_0)  _C810     -1.000000000000e+00
    nodepairs_(1,_0)  _C811     -1.000000000000e+00
    MARK      'MARKER'                 'INTEND'
    MARK      'MARKER'                 'INTORG'
    nodepairs_(1,_1)  _C2        1.000000000000e+00
    nodepairs_(1,_1)  _C27       1.000000000000e+00
    nodepairs_(1,_1)  _C136     -1.000000000000e+00
    nodepairs_(1,_1)  _C137     -1.000000000000e+00
    nodepairs_(1,_1)  _C138     -1.000000000000e+00
    nodepairs_(1,_1)  _C837     -1.000000000000e+00
    nodepairs_(1,_1)  _C838     -1.000000000000e+00
    nodepairs_(1,_1)  _C839     -1.000000000000e+00
    nodepairs_(1,_1)  _C840     -1.000000000000e+00
    MARK      'MARKER'                 'INTEND'
    MARK      'MARKER'                 'INTORG'
    nodepairs_(1,_11)  _C2        1.000000000000e+00
    nodepairs_(1,_11)  _C37       1.000000000000e+00
    nodepairs_(1,_11)  _C145     -1.000000000000e+00
    nodepairs_(1,_11)  _C149     -1.000000000000e+00
    nodepairs_(1,_11)  _C150     -1.000000000000e+00
    nodepairs_(1,_11)  _C151     -1.000000000000e+00
    nodepairs_(1,_11)  _C1127    -1.000000000000e+00
    nodepairs_(1,_11)  _C1128    -1.000000000000e+00
    nodepairs_(1,_11)  _C1129    -1.000000000000e+00
    nodepairs_(1,_11)  _C1130    -1.000000000000e+00
    MARK      'MARKER'                 'INTEND'
    MARK      'MARKER'                 'INTORG'
    nodepairs_(1,_12)  _C2        1.000000000000e+00
    nodepairs_(1,_12)  _C38       1.000000000000e+00
    nodepairs_(1,_12)  _C149     -1.000000000000e+00
    nodepairs_(1,_12)  _C152     -1.000000000000e+00
    nodepairs_(1,_12)  _C1156    -1.000000000000e+00
    nodepairs_(1,_12)  _C1157    -1.000000000000e+00
    nodepairs_(1,_12)  _C1158    -1.000000000000e+00
    nodepairs_(1,_12)  _C1159    -1.000000000000e+00
    MARK      'MARKER'                 'INTEND'
    MARK      'MARKER'                 'INTORG'
    nodepairs_(1,_13)  _C2        1.000000000000e+00
    nodepairs_(1,_13)  _C39       1.000000000000e+00
    nodepairs_(1,_13)  _C152     -1.000000000000e+00
    nodepairs_(1,_13)  _C153     -1.000000000000e+00
    nodepairs_(1,_13)  _C1185    -1.000000000000e+00
    nodepairs_(1,_13)  _C1186    -1.000000000000e+00
    nodepairs_(1,_13)  _C1187    -1.000000000000e+00
    nodepairs_(1,_13)  _C1188    -1.000000000000e+00
    MARK      'MARKER'                 'INTEND'
    MARK      'MARKER'                 'INTORG'
    nodepairs_(1,_14)  _C2        1.000000000000e+00
    nodepairs_(1,_14)  _C40       1.000000000000e+00
    nodepairs_(1,_14)  _C153     -1.000000000000e+00
    nodepairs_(1,_14)  _C154     -1.000000000000e+00
    nodepairs_(1,_14)  _C1214    -1.000000000000e+00
    nodepairs_(1,_14)  _C1215    -1.000000000000e+00
    nodepairs_(1,_14)  _C1216    -1.000000000000e+00
    nodepairs_(1,_14)  _C1217    -1.000000000000e+00
    MARK      'MARKER'                 'INTEND'
    MARK      'MARKER'                 'INTORG'
    nodepairs_(1,_15)  _C2        1.000000000000e+00
    nodepairs_(1,_15)  _C41       1.000000000000e+00
    nodepairs_(1,_15)  _C154     -1.000000000000e+00
    nodepairs_(1,_15)  _C155     -1.000000000000e+00
    nodepairs_(1,_15)  _C156     -1.000000000000e+00
    nodepairs_(1,_15)  _C157     -1.000000000000e+00
    nodepairs_(1,_15)  _C1243    -1.000000000000e+00
    nodepairs_(1,_15)  _C1244    -1.000000000000e+00
    nodepairs_(1,_15)  _C1245    -1.000000000000e+00
    nodepairs_(1,_15)  _C1246    -1.000000000000e+00
    MARK      'MARKER'                 'INTEND'
    MARK      'MARKER'                 'INTORG'
    nodepairs_(1,_16)  _C2        1.000000000000e+00
    nodepairs_(1,_16)  _C42       1.000000000000e+00
    nodepairs_(1,_16)  _C155     -1.000000000000e+00
    nodepairs_(1,_16)  _C1272    -1.000000000000e+00
    nodepairs_(1,_16)  _C1273    -1.000000000000e+00
    nodepairs_(1,_16)  _C1274    -1.000000000000e+00
    nodepairs_(1,_16)  _C1275    -1.000000000000e+00
    MARK      'MARKER'                 'INTEND'
    MARK      'MARKER'                 'INTORG'
    nodepairs_(1,_17)  _C2        1.000000000000e+00
    nodepairs_(1,_17)  _C43       1.000000000000e+00
    nodepairs_(1,_17)  _C156     -1.000000000000e+00
    nodepairs_(1,_17)  _C1301    -1.000000000000e+00
    nodepairs_(1,_17)  _C1302    -1.000000000000e+00
    nodepairs_(1,_17)  _C1303    -1.000000000000e+00
    nodepairs_(1,_17)  _C1304    -1.000000000000e+00
    MARK      'MARKER'                 'INTEND'
    MARK      'MARKER'                 'INTORG'
    nodepairs_(1,_18)  _C2        1.000000000000e+00
    nodepairs_(1,_18)  _C44       1.000000000000e+00
    nodepairs_(1,_18)  _C150     -1.000000000000e+00
    nodepairs_(1,_18)  _C157     -1.000000000000e+00
    nodepairs_(1,_18)  _C158     -1.000000000000e+00
    nodepairs_(1,_18)  _C1330    -1.000000000000e+00
    nodepairs_(1,_18)  _C1331    -1.000000000000e+00
    nodepairs_(1,_18)  _C1332    -1.000000000000e+00
    nodepairs_(1,_18)  _C1333    -1.000000000000e+00
    MARK      'MARKER'                 'INTEND'
    MARK      'MARKER'                 'INTORG'
    nodepairs_(1,_19)  _C2        1.000000000000e+00
    nodepairs_(1,_19)  _C45       1.000000000000e+00
    nodepairs_(1,_19)  _C158     -1.000000000000e+00
    nodepairs_(1,_19)  _C159     -1.000000000000e+00
    nodepairs_(1,_19)  _C160     -1.000000000000e+00
    nodepairs_(1,_19)  _C1359    -1.000000000000e+00
    nodepairs_(1,_19)  _C1360    -1.000000000000e+00
    nodepairs_(1,_19)  _C1361    -1.000000000000e+00
    nodepairs_(1,_19)  _C1362    -1.000000000000e+00
    MARK      'MARKER'                 'INTEND'
    MARK      'MARKER'                 'INTORG'
    nodepairs_(1,_2)  _C2        1.000000000000e+00
    nodepairs_(1,_2)  _C28       1.000000000000e+00
    nodepairs_(1,_2)  _C137     -1.000000000000e+00
    nodepairs_(1,_2)  _C866     -1.000000000000e+00
    nodepairs_(1,_2)  _C867     -1.000000000000e+00
    nodepairs_(1,_2)  _C868     -1.000000000000e+00
    nodepairs_(1,_2)  _C869     -1.000000000000e+00
    MARK      'MARKER'                 'INTEND'
    MARK      'MARKER'                 'INTORG'
    nodepairs_(1,_21)  _C2        1.000000000000e+00
    nodepairs_(1,_21)  _C47       1.000000000000e+00
    nodepairs_(1,_21)  _C143     -1.000000000000e+00
    nodepairs_(1,_21)  _C160     -1.000000000000e+00
    nodepairs_(1,_21)  _C161     -1.000000000000e+00
    nodepairs_(1,_21)  _C1417    -1.000000000000e+00
    nodepairs_(1,_21)  _C1418    -1.000000000000e+00
    nodepairs_(1,_21)  _C1419    -1.000000000000e+00
    nodepairs_(1,_21)  _C1420    -1.000000000000e+00
    MARK      'MARKER'                 'INTEND'
    MARK      'MARKER'                 'INTORG'
    nodepairs_(1,_23)  _C2        1.000000000000e+00
    nodepairs_(1,_23)  _C49       1.000000000000e+00
    nodepairs_(1,_23)  _C151     -1.000000000000e+00
    nodepairs_(1,_23)  _C162     -1.000000000000e+00
    nodepairs_(1,_23)  _C163     -1.000000000000e+00
    nodepairs_(1,_23)  _C1475    -1.000000000000e+00
    nodepairs_(1,_23)  _C1476    -1.000000000000e+00
    nodepairs_(1,_23)  _C1477    -1.000000000000e+00
    nodepairs_(1,_23)  _C1478    -1.000000000000e+00
    MARK      'MARKER'                 'INTEND'
    MARK      'MARKER'                 'INTORG'
    nodepairs_(1,_3)  _C2        1.000000000000e+00
    nodepairs_(1,_3)  _C29       1.000000000000e+00
    nodepairs_(1,_3)  _C138     -1.000000000000e+00
    nodepairs_(1,_3)  _C139     -1.000000000000e+00
    nodepairs_(1,_3)  _C140     -1.000000000000e+00
    nodepairs_(1,_3)  _C895     -1.000000000000e+00
    nodepairs_(1,_3)  _C896     -1.000000000000e+00
    nodepairs_(1,_3)  _C897     -1.000000000000e+00
    nodepairs_(1,_3)  _C898     -1.000000000000e+00
    MARK      'MARKER'                 'INTEND'
    MARK      'MARKER'                 'INTORG'
    nodepairs_(1,_4)  _C2        1.000000000000e+00
    nodepairs_(1,_4)  _C30       1.000000000000e+00
    nodepairs_(1,_4)  _C139     -1.000000000000e+00
    nodepairs_(1,_4)  _C141     -1.000000000000e+00
    nodepairs_(1,_4)  _C924     -1.000000000000e+00
    nodepairs_(1,_4)  _C925     -1.000000000000e+00
    nodepairs_(1,_4)  _C926     -1.000000000000e+00
    nodepairs_(1,_4)  _C927     -1.000000000000e+00
    MARK      'MARKER'                 'INTEND'
    MARK      'MARKER'                 'INTORG'
    nodepairs_(1,_5)  _C2        1.000000000000e+00
    nodepairs_(1,_5)  _C31       1.000000000000e+00
    nodepairs_(1,_5)  _C141     -1.000000000000e+00
    nodepairs_(1,_5)  _C142     -1.000000000000e+00
    nodepairs_(1,_5)  _C143     -1.000000000000e+00
    nodepairs_(1,_5)  _C953     -1.000000000000e+00
    nodepairs_(1,_5)  _C954     -1.000000000000e+00
    nodepairs_(1,_5)  _C955     -1.000000000000e+00
    nodepairs_(1,_5)  _C956     -1.000000000000e+00
    MARK      'MARKER'                 'INTEND'
    MARK      'MARKER'                 'INTORG'
    nodepairs_(1,_6)  _C2        1.000000000000e+00
    nodepairs_(1,_6)  _C32       1.000000000000e+00
    nodepairs_(1,_6)  _C142     -1.000000000000e+00
    nodepairs_(1,_6)  _C144     -1.000000000000e+00
    nodepairs_(1,_6)  _C145     -1.000000000000e+00
    nodepairs_(1,_6)  _C982     -1.000000000000e+00
    nodepairs_(1,_6)  _C983     -1.000000000000e+00
    nodepairs_(1,_6)  _C984     -1.000000000000e+00
    nodepairs_(1,_6)  _C985     -1.000000000000e+00
    MARK      'MARKER'                 'INTEND'
    MARK      'MARKER'                 'INTORG'
    nodepairs_(1,_7)  _C2        1.000000000000e+00
    nodepairs_(1,_7)  _C33       1.000000000000e+00
    nodepairs_(1,_7)  _C144     -1.000000000000e+00
    nodepairs_(1,_7)  _C146     -1.000000000000e+00
    nodepairs_(1,_7)  _C147     -1.000000000000e+00
    nodepairs_(1,_7)  _C1011    -1.000000000000e+00
    nodepairs_(1,_7)  _C1012    -1.000000000000e+00
    nodepairs_(1,_7)  _C1013    -1.000000000000e+00
    nodepairs_(1,_7)  _C1014    -1.000000000000e+00
    MARK      'MARKER'                 'INTEND'
    MARK      'MARKER'                 'INTORG'
    nodepairs_(1,_9)  _C2        1.000000000000e+00
    nodepairs_(1,_9)  _C35       1.000000000000e+00
    nodepairs_(1,_9)  _C140     -1.000000000000e+00
    nodepairs_(1,_9)  _C147     -1.000000000000e+00
    nodepairs_(1,_9)  _C148     -1.000000000000e+00
    nodepairs_(1,_9)  _C1069    -1.000000000000e+00
    nodepairs_(1,_9)  _C1070    -1.000000000000e+00
    nodepairs_(1,_9)  _C1071    -1.000000000000e+00
    nodepairs_(1,_9)  _C1072    -1.000000000000e+00
    MARK      'MARKER'                 'INTEND'
    MARK      'MARKER'                 'INTORG'
    nodepairs_(10,_0)  _C11       1.000000000000e+00
    nodepairs_(10,_0)  _C26       1.000000000000e+00
    nodepairs_(10,_0)  _C388     -1.000000000000e+00
    nodepairs_(10,_0)  _C822     -1.000000000000e+00
    MARK      'MARKER'                 'INTEND'
    MARK      'MARKER'                 'INTORG'
    nodepairs_(10,_1)  _C11       1.000000000000e+00
    nodepairs_(10,_1)  _C27       1.000000000000e+00
    nodepairs_(10,_1)  _C388     -1.000000000000e+00
    nodepairs_(10,_1)  _C389     -1.000000000000e+00
    nodepairs_(10,_1)  _C390     -1.000000000000e+00
    nodepairs_(10,_1)  _C851     -1.000000000000e+00
    MARK      'MARKER'                 'INTEND'
    MARK      'MARKER'                 'INTORG'
    nodepairs_(10,_11)  _C11       1.000000000000e+00
    nodepairs_(10,_11)  _C37       1.000000000000e+00
    nodepairs_(10,_11)  _C397     -1.000000000000e+00
    nodepairs_(10,_11)  _C401     -1.000000000000e+00
    nodepairs_(10,_11)  _C402     -1.000000000000e+00
    nodepairs_(10,_11)  _C403     -1.000000000000e+00
    nodepairs_(10,_11)  _C1141    -1.000000000000e+00
    MARK      'MARKER'                 'INTEND'
    MARK      'MARKER'                 'INTORG'
    nodepairs_(10,_12)  _C11       1.000000000000e+00
    nodepairs_(10,_12)  _C38       1.000000000000e+00
    nodepairs_(10,_12)  _C401     -1.000000000000e+00
    nodepairs_(10,_12)  _C404     -1.000000000000e+00
    nodepairs_(10,_12)  _C1170    -1.000000000000e+00
    MARK      'MARKER'                 'INTEND'
    MARK      'MARKER'                 'INTORG'
    nodepairs_(10,_13)  _C11       1.000000000000e+00
    nodepairs_(10,_13)  _C39       1.000000000000e+00
    nodepairs_(10,_13)  _C404     -1.000000000000e+00
    nodepairs_(10,_13)  _C405     -1.000000000000e+00
    nodepairs_(10,_13)  _C1199    -1.000000000000e+00
    MARK      'MARKER'                 'INTEND'
    MARK      'MARKER'                 'INTORG'
    nodepairs_(10,_14)  _C11       1.000000000000e+00
    nodepairs_(10,_14)  _C40       1.000000000000e+00
    nodepairs_(10,_14)  _C405     -1.000000000000e+00
    nodepairs_(10,_14)  _C406     -1.000000000000e+00
    nodepairs_(10,_14)  _C1228    -1.000000000000e+00
    MARK      'MARKER'                 'INTEND'
    MARK      'MARKER'                 'INTORG'
    nodepairs_(10,_15)  _C11       1.000000000000e+00
    nodepairs_(10,_15)  _C41       1.000000000000e+00
    nodepairs_(10,_15)  _C406     -1.000000000000e+00
    nodepairs_(10,_15)  _C407     -1.000000000000e+00
    nodepairs_(10,_15)  _C408     -1.000000000000e+00
    nodepairs_(10,_15)  _C409     -1.000000000000e+00
    nodepairs_(10,_15)  _C1257    -1.000000000000e+00
    MARK      'MARKER'                 'INTEND'
    MARK      'MARKER'                 'INTORG'
    nodepairs_(10,_16)  _C11       1.000000000000e+00
    nodepairs_(10,_16)  _C42       1.000000000000e+00
    nodepairs_(10,_16)  _C407     -1.000000000000e+00
    nodepairs_(10,_16)  _C1286    -1.000000000000e+00
    MARK      'MARKER'                 'INTEND'
    MARK      'MARKER'                 'INTORG'
    nodepairs_(10,_17)  _C11       1.000000000000e+00
    nodepairs_(10,_17)  _C43       1.000000000000e+00
    nodepairs_(10,_17)  _C408     -1.000000000000e+00
    nodepairs_(10,_17)  _C1315    -1.000000000000e+00
    MARK      'MARKER'                 'INTEND'
    MARK      'MARKER'                 'INTORG'
    nodepairs_(10,_18)  _C11       1.000000000000e+00
    nodepairs_(10,_18)  _C44       1.000000000000e+00
    nodepairs_(10,_18)  _C402     -1.000000000000e+00
    nodepairs_(10,_18)  _C409     -1.000000000000e+00
    nodepairs_(10,_18)  _C410     -1.000000000000e+00
    nodepairs_(10,_18)  _C1344    -1.000000000000e+00
    MARK      'MARKER'                 'INTEND'
    MARK      'MARKER'                 'INTORG'
    nodepairs_(10,_19)  _C11       1.000000000000e+00
    nodepairs_(10,_19)  _C45       1.000000000000e+00
    nodepairs_(10,_19)  _C410     -1.000000000000e+00
    nodepairs_(10,_19)  _C411     -1.000000000000e+00
    nodepairs_(10,_19)  _C412     -1.000000000000e+00
    nodepairs_(10,_19)  _C1373    -1.000000000000e+00
    MARK      'MARKER'                 'INTEND'
    MARK      'MARKER'                 'INTORG'
    nodepairs_(10,_2)  _C11       1.000000000000e+00
    nodepairs_(10,_2)  _C28       1.000000000000e+00
    nodepairs_(10,_2)  _C389     -1.000000000000e+00
    nodepairs_(10,_2)  _C880     -1.000000000000e+00
    MARK      'MARKER'                 'INTEND'
    MARK      'MARKER'                 'INTORG'
    nodepairs_(10,_21)  _C11       1.000000000000e+00
    nodepairs_(10,_21)  _C47       1.000000000000e+00
    nodepairs_(10,_21)  _C395     -1.000000000000e+00
    nodepairs_(10,_21)  _C412     -1.000000000000e+00
    nodepairs_(10,_21)  _C413     -1.000000000000e+00
    nodepairs_(10,_21)  _C1431    -1.000000000000e+00
    MARK      'MARKER'                 'INTEND'
    MARK      'MARKER'                 'INTORG'
    nodepairs_(10,_23)  _C11       1.000000000000e+00
    nodepairs_(10,_23)  _C49       1.000000000000e+00
    nodepairs_(10,_23)  _C403     -1.000000000000e+00
    nodepairs_(10,_23)  _C414     -1.000000000000e+00
    nodepairs_(10,_23)  _C415     -1.000000000000e+00
    nodepairs_(10,_23)  _C1489    -1.000000000000e+00
    MARK      'MARKER'                 'INTEND'
    MARK      'MARKER'                 'INTORG'
    nodepairs_(10,_3)  _C11       1.000000000000e+00
    nodepairs_(10,_3)  _C29       1.000000000000e+00
    nodepairs_(10,_3)  _C390     -1.000000000000e+00
    nodepairs_(10,_3)  _C391     -1.000000000000e+00
    nodepairs_(10,_3)  _C392     -1.000000000000e+00
    nodepairs_(10,_3)  _C909     -1.000000000000e+00
    MARK      'MARKER'                 'INTEND'
    MARK      'MARKER'                 'INTORG'
    nodepairs_(10,_4)  _C11       1.000000000000e+00
    nodepairs_(10,_4)  _C30       1.000000000000e+00
    nodepairs_(10,_4)  _C391     -1.000000000000e+00
    nodepairs_(10,_4)  _C393     -1.000000000000e+00
    nodepairs_(10,_4)  _C938     -1.000000000000e+00
    MARK      'MARKER'                 'INTEND'
    MARK      'MARKER'                 'INTORG'
    nodepairs_(10,_5)  _C11       1.000000000000e+00
    nodepairs_(10,_5)  _C31       1.000000000000e+00
    nodepairs_(10,_5)  _C393     -1.000000000000e+00
    nodepairs_(10,_5)  _C394     -1.000000000000e+00
    nodepairs_(10,_5)  _C395     -1.000000000000e+00
    nodepairs_(10,_5)  _C967     -1.000000000000e+00
    MARK      'MARKER'                 'INTEND'
    MARK      'MARKER'                 'INTORG'
    nodepairs_(10,_6)  _C11       1.000000000000e+00
    nodepairs_(10,_6)  _C32       1.000000000000e+00
    nodepairs_(10,_6)  _C394     -1.000000000000e+00
    nodepairs_(10,_6)  _C396     -1.000000000000e+00
    nodepairs_(10,_6)  _C397     -1.000000000000e+00
    nodepairs_(10,_6)  _C996     -1.000000000000e+00
    MARK      'MARKER'                 'INTEND'
    MARK      'MARKER'                 'INTORG'
    nodepairs_(10,_7)  _C11       1.000000000000e+00
    nodepairs_(10,_7)  _C33       1.000000000000e+00
    nodepairs_(10,_7)  _C396     -1.000000000000e+00
    nodepairs_(10,_7)  _C398     -1.000000000000e+00
    nodepairs_(10,_7)  _C399     -1.000000000000e+00
    nodepairs_(10,_7)  _C1025    -1.000000000000e+00
    MARK      'MARKER'                 'INTEND'
    MARK      'MARKER'                 'INTORG'
    nodepairs_(10,_9)  _C11       1.000000000000e+00
    nodepairs_(10,_9)  _C35       1.000000000000e+00
    nodepairs_(10,_9)  _C392     -1.000000000000e+00
    nodepairs_(10,_9)  _C399     -1.000000000000e+00
    nodepairs_(10,_9)  _C400     -1.000000000000e+00
    nodepairs_(10,_9)  _C1083    -1.000000000000e+00
    MARK      'MARKER'                 'INTEND'
    MARK      'MARKER'                 'INTORG'
    nodepairs_(11,_0)  _C12       1.000000000000e+00
    nodepairs_(11,_0)  _C26       1.000000000000e+00
    nodepairs_(11,_0)  _C416     -1.000000000000e+00
    nodepairs_(11,_0)  _C823     -1.000000000000e+00
    nodepairs_(11,_0)  _C824     -1.000000000000e+00
    nodepairs_(11,_0)  _C825     -1.000000000000e+00
    nodepairs_(11,_0)  _C826     -1.000000000000e+00
    MARK      'MARKER'                 'INTEND'
    MARK      'MARKER'                 'INTORG'
    nodepairs_(11,_1)  _C12       1.000000000000e+00
    nodepairs_(11,_1)  _C27       1.000000000000e+00
    nodepairs_(11,_1)  _C416     -1.000000000000e+00
    nodepairs_(11,_1)  _C417     -1.000000000000e+00
    nodepairs_(11,_1)  _C418     -1.000000000000e+00
    nodepairs_(11,_1)  _C852     -1.000000000000e+00
    nodepairs_(11,_1)  _C853     -1.000000000000e+00
    nodepairs_(11,_1)  _C854     -1.000000000000e+00
    nodepairs_(11,_1)  _C855     -1.000000000000e+00
    MARK      'MARKER'                 'INTEND'
    MARK      'MARKER'                 'INTORG'
    nodepairs_(11,_11)  _C12       1.000000000000e+00
    nodepairs_(11,_11)  _C37       1.000000000000e+00
    nodepairs_(11,_11)  _C425     -1.000000000000e+00
    nodepairs_(11,_11)  _C429     -1.000000000000e+00
    nodepairs_(11,_11)  _C430     -1.000000000000e+00
    nodepairs_(11,_11)  _C431     -1.000000000000e+00
    nodepairs_(11,_11)  _C1142    -1.000000000000e+00
    nodepairs_(11,_11)  _C1143    -1.000000000000e+00
    nodepairs_(11,_11)  _C1144    -1.000000000000e+00
    nodepairs_(11,_11)  _C1145    -1.000000000000e+00
    MARK      'MARKER'                 'INTEND'
    MARK      'MARKER'                 'INTORG'
    nodepairs_(11,_12)  _C12       1.000000000000e+00
    nodepairs_(11,_12)  _C38       1.000000000000e+00
    nodepairs_(11,_12)  _C429     -1.000000000000e+00
    nodepairs_(11,_12)  _C432     -1.000000000000e+00
    nodepairs_(11,_12)  _C1171    -1.000000000000e+00
    nodepairs_(11,_12)  _C1172    -1.000000000000e+00
    nodepairs_(11,_12)  _C1173    -1.000000000000e+00
    nodepairs_(11,_12)  _C1174    -1.000000000000e+00
    MARK      'MARKER'                 'INTEND'
    MARK      'MARKER'                 'INTORG'
    nodepairs_(11,_13)  _C12       1.000000000000e+00
    nodepairs_(11,_13)  _C39       1.000000000000e+00
    nodepairs_(11,_13)  _C432     -1.000000000000e+00
    nodepairs_(11,_13)  _C433     -1.000000000000e+00
    nodepairs_(11,_13)  _C1200    -1.000000000000e+00
    nodepairs_(11,_13)  _C1201    -1.000000000000e+00
    nodepairs_(11,_13)  _C1202    -1.000000000000e+00
    nodepairs_(11,_13)  _C1203    -1.000000000000e+00
    MARK      'MARKER'                 'INTEND'
    MARK      'MARKER'                 'INTORG'
    nodepairs_(11,_14)  _C12       1.000000000000e+00
    nodepairs_(11,_14)  _C40       1.000000000000e+00
    nodepairs_(11,_14)  _C433     -1.000000000000e+00
    nodepairs_(11,_14)  _C434     -1.000000000000e+00
    nodepairs_(11,_14)  _C1229    -1.000000000000e+00
    nodepairs_(11,_14)  _C1230    -1.000000000000e+00
    nodepairs_(11,_14)  _C1231    -1.000000000000e+00
    nodepairs_(11,_14)  _C1232    -1.000000000000e+00
    MARK      'MARKER'                 'INTEND'
    MARK      'MARKER'                 'INTORG'
    nodepairs_(11,_15)  _C12       1.000000000000e+00
    nodepairs_(11,_15)  _C41       1.000000000000e+00
    nodepairs_(11,_15)  _C434     -1.000000000000e+00
    nodepairs_(11,_15)  _C435     -1.000000000000e+00
    nodepairs_(11,_15)  _C436     -1.000000000000e+00
    nodepairs_(11,_15)  _C437     -1.000000000000e+00
    nodepairs_(11,_15)  _C1258    -1.000000000000e+00
    nodepairs_(11,_15)  _C1259    -1.000000000000e+00
    nodepairs_(11,_15)  _C1260    -1.000000000000e+00
    nodepairs_(11,_15)  _C1261    -1.000000000000e+00
    MARK      'MARKER'                 'INTEND'
    MARK      'MARKER'                 'INTORG'
    nodepairs_(11,_16)  _C12       1.000000000000e+00
    nodepairs_(11,_16)  _C42       1.000000000000e+00
    nodepairs_(11,_16)  _C435     -1.000000000000e+00
    nodepairs_(11,_16)  _C1287    -1.000000000000e+00
    nodepairs_(11,_16)  _C1288    -1.000000000000e+00
    nodepairs_(11,_16)  _C1289    -1.000000000000e+00
    nodepairs_(11,_16)  _C1290    -1.000000000000e+00
    MARK      'MARKER'                 'INTEND'
    MARK      'MARKER'                 'INTORG'
    nodepairs_(11,_17)  _C12       1.000000000000e+00
    nodepairs_(11,_17)  _C43       1.000000000000e+00
    nodepairs_(11,_17)  _C436     -1.000000000000e+00
    nodepairs_(11,_17)  _C1316    -1.000000000000e+00
    nodepairs_(11,_17)  _C1317    -1.000000000000e+00
    nodepairs_(11,_17)  _C1318    -1.000000000000e+00
    nodepairs_(11,_17)  _C1319    -1.000000000000e+00
    MARK      'MARKER'                 'INTEND'
    MARK      'MARKER'                 'INTORG'
    nodepairs_(11,_18)  _C12       1.000000000000e+00
    nodepairs_(11,_18)  _C44       1.000000000000e+00
    nodepairs_(11,_18)  _C430     -1.000000000000e+00
    nodepairs_(11,_18)  _C437     -1.000000000000e+00
    nodepairs_(11,_18)  _C438     -1.000000000000e+00
    nodepairs_(11,_18)  _C1345    -1.000000000000e+00
    nodepairs_(11,_18)  _C1346    -1.000000000000e+00
    nodepairs_(11,_18)  _C1347    -1.000000000000e+00
    nodepairs_(11,_18)  _C1348    -1.000000000000e+00
    MARK      'MARKER'                 'INTEND'
    MARK      'MARKER'                 'INTORG'
    nodepairs_(11,_19)  _C12       1.000000000000e+00
    nodepairs_(11,_19)  _C45       1.000000000000e+00
    nodepairs_(11,_19)  _C438     -1.000000000000e+00
    nodepairs_(11,_19)  _C439     -1.000000000000e+00
    nodepairs_(11,_19)  _C440     -1.000000000000e+00
    nodepairs_(11,_19)  _C1374    -1.000000000000e+00
    nodepairs_(11,_19)  _C1375    -1.000000000000e+00
    nodepairs_(11,_19)  _C1376    -1.000000000000e+00
    nodepairs_(11,_19)  _C1377    -1.000000000000e+00
    MARK      'MARKER'                 'INTEND'
    MARK      'MARKER'                 'INTORG'
    nodepairs_(11,_2)  _C12       1.000000000000e+00
    nodepairs_(11,_2)  _C28       1.000000000000e+00
    nodepairs_(11,_2)  _C417     -1.000000000000e+00
    nodepairs_(11,_2)  _C881     -1.000000000000e+00
    nodepairs_(11,_2)  _C882     -1.000000000000e+00
    nodepairs_(11,_2)  _C883     -1.000000000000e+00
    nodepairs_(11,_2)  _C884     -1.000000000000e+00
    MARK      'MARKER'                 'INTEND'
    MARK      'MARKER'                 'INTORG'
    nodepairs_(11,_21)  _C12       1.000000000000e+00
    nodepairs_(11,_21)  _C47       1.000000000000e+00
    nodepairs_(11,_21)  _C423     -1.000000000000e+00
    nodepairs_(11,_21)  _C440     -1.000000000000e+00
    nodepairs_(11,_21)  _C441     -1.000000000000e+00
    nodepairs_(11,_21)  _C1432    -1.000000000000e+00
    nodepairs_(11,_21)  _C1433    -1.000000000000e+00
    nodepairs_(11,_21)  _C1434    -1.000000000000e+00
    nodepairs_(11,_21)  _C1435    -1.000000000000e+00
    MARK      'MARKER'                 'INTEND'
    MARK      'MARKER'                 'INTORG'
    nodepairs_(11,_23)  _C12       1.000000000000e+00
    nodepairs_(11,_23)  _C49       1.000000000000e+00
    nodepairs_(11,_23)  _C431     -1.000000000000e+00
    nodepairs_(11,_23)  _C442     -1.000000000000e+00
    nodepairs_(11,_23)  _C443     -1.000000000000e+00
    nodepairs_(11,_23)  _C1490    -1.000000000000e+00
    nodepairs_(11,_23)  _C1491    -1.000000000000e+00
    nodepairs_(11,_23)  _C1492    -1.000000000000e+00
    nodepairs_(11,_23)  _C1493    -1.000000000000e+00
    MARK      'MARKER'                 'INTEND'
    MARK      'MARKER'                 'INTORG'
    nodepairs_(11,_3)  _C12       1.000000000000e+00
    nodepairs_(11,_3)  _C29       1.000000000000e+00
    nodepairs_(11,_3)  _C418     -1.000000000000e+00
    nodepairs_(11,_3)  _C419     -1.000000000000e+00
    nodepairs_(11,_3)  _C420     -1.000000000000e+00
    nodepairs_(11,_3)  _C910     -1.000000000000e+00
    nodepairs_(11,_3)  _C911     -1.000000000000e+00
    nodepairs_(11,_3)  _C912     -1.000000000000e+00
    nodepairs_(11,_3)  _C913     -1.000000000000e+00
    MARK      'MARKER'                 'INTEND'
    MARK      'MARKER'                 'INTORG'
    nodepairs_(11,_4)  _C12       1.000000000000e+00
    nodepairs_(11,_4)  _C30       1.000000000000e+00
    nodepairs_(11,_4)  _C419     -1.000000000000e+00
    nodepairs_(11,_4)  _C421     -1.000000000000e+00
    nodepairs_(11,_4)  _C939     -1.000000000000e+00
    nodepairs_(11,_4)  _C940     -1.000000000000e+00
    nodepairs_(11,_4)  _C941     -1.000000000000e+00
    nodepairs_(11,_4)  _C942     -1.000000000000e+00
    MARK      'MARKER'                 'INTEND'
    MARK      'MARKER'                 'INTORG'
    nodepairs_(11,_5)  _C12       1.000000000000e+00
    nodepairs_(11,_5)  _C31       1.000000000000e+00
    nodepairs_(11,_5)  _C421     -1.000000000000e+00
    nodepairs_(11,_5)  _C422     -1.000000000000e+00
    nodepairs_(11,_5)  _C423     -1.000000000000e+00
    nodepairs_(11,_5)  _C968     -1.000000000000e+00
    nodepairs_(11,_5)  _C969     -1.000000000000e+00
    nodepairs_(11,_5)  _C970     -1.000000000000e+00
    nodepairs_(11,_5)  _C971     -1.000000000000e+00
    MARK      'MARKER'                 'INTEND'
    MARK      'MARKER'                 'INTORG'
    nodepairs_(11,_6)  _C12       1.000000000000e+00
    nodepairs_(11,_6)  _C32       1.000000000000e+00
    nodepairs_(11,_6)  _C422     -1.000000000000e+00
    nodepairs_(11,_6)  _C424     -1.000000000000e+00
    nodepairs_(11,_6)  _C425     -1.000000000000e+00
    nodepairs_(11,_6)  _C997     -1.000000000000e+00
    nodepairs_(11,_6)  _C998     -1.000000000000e+00
    nodepairs_(11,_6)  _C999     -1.000000000000e+00
    nodepairs_(11,_6)  _C1000    -1.000000000000e+00
    MARK      'MARKER'                 'INTEND'
    MARK      'MARKER'                 'INTORG'
    nodepairs_(11,_7)  _C12       1.000000000000e+00
    nodepairs_(11,_7)  _C33       1.000000000000e+00
    nodepairs_(11,_7)  _C424     -1.000000000000e+00
    nodepairs_(11,_7)  _C426     -1.000000000000e+00
    nodepairs_(11,_7)  _C427     -1.000000000000e+00
    nodepairs_(11,_7)  _C1026    -1.000000000000e+00
    nodepairs_(11,_7)  _C1027    -1.000000000000e+00
    nodepairs_(11,_7)  _C1028    -1.000000000000e+00
    nodepairs_(11,_7)  _C1029    -1.000000000000e+00
    MARK      'MARKER'                 'INTEND'
    MARK      'MARKER'                 'INTORG'
    nodepairs_(11,_9)  _C12       1.000000000000e+00
    nodepairs_(11,_9)  _C35       1.000000000000e+00
    nodepairs_(11,_9)  _C420     -1.000000000000e+00
    nodepairs_(11,_9)  _C427     -1.000000000000e+00
    nodepairs_(11,_9)  _C428     -1.000000000000e+00
    nodepairs_(11,_9)  _C1084    -1.000000000000e+00
    nodepairs_(11,_9)  _C1085    -1.000000000000e+00
    nodepairs_(11,_9)  _C1086    -1.000000000000e+00
    nodepairs_(11,_9)  _C1087    -1.000000000000e+00
    MARK      'MARKER'                 'INTEND'
    MARK      'MARKER'                 'INTORG'
    nodepairs_(12,_10)  _C13       1.000000000000e+00
    nodepairs_(12,_10)  _C36       1.000000000000e+00
    nodepairs_(12,_10)  _C456     -1.000000000000e+00
    nodepairs_(12,_10)  _C1114    -1.000000000000e+00
    MARK      'MARKER'                 'INTEND'
    MARK      'MARKER'                 'INTORG'
    nodepairs_(12,_20)  _C13       1.000000000000e+00
    nodepairs_(12,_20)  _C46       1.000000000000e+00
    nodepairs_(12,_20)  _C467     -1.000000000000e+00
    nodepairs_(12,_20)  _C1404    -1.000000000000e+00
    MARK      'MARKER'                 'INTEND'
    MARK      'MARKER'                 'INTORG'
    nodepairs_(12,_22)  _C13       1.000000000000e+00
    nodepairs_(12,_22)  _C48       1.000000000000e+00
    nodepairs_(12,_22)  _C469     -1.000000000000e+00
    nodepairs_(12,_22)  _C470     -1.000000000000e+00
    nodepairs_(12,_22)  _C1462    -1.000000000000e+00
    MARK      'MARKER'                 'INTEND'
    MARK      'MARKER'                 'INTORG'
    nodepairs_(12,_24)  _C13       1.000000000000e+00
    nodepairs_(12,_24)  _C50       1.000000000000e+00
    nodepairs_(12,_24)  _C471     -1.000000000000e+00
    nodepairs_(12,_24)  _C1520    -1.000000000000e+00
    MARK      'MARKER'                 'INTEND'
    MARK      'MARKER'                 'INTORG'
    nodepairs_(12,_8)  _C13       1.000000000000e+00
    nodepairs_(12,_8)  _C34       1.000000000000e+00
    nodepairs_(12,_8)  _C454     -1.000000000000e+00
    nodepairs_(12,_8)  _C1056    -1.000000000000e+00
    MARK      'MARKER'                 'INTEND'
    MARK      'MARKER'                 'INTORG'
    nodepairs_(13,_0)  _C14       1.000000000000e+00
    nodepairs_(13,_0)  _C26       1.000000000000e+00
    nodepairs_(13,_0)  _C472     -1.000000000000e+00
    nodepairs_(13,_0)  _C819     -1.000000000000e+00
    nodepairs_(13,_0)  _C825     -1.000000000000e+00
    MARK      'MARKER'                 'INTEND'
    MARK      'MARKER'                 'INTORG'
    nodepairs_(13,_1)  _C14       1.000000000000e+00
    nodepairs_(13,_1)  _C27       1.000000000000e+00
    nodepairs_(13,_1)  _C472     -1.000000000000e+00
    nodepairs_(13,_1)  _C473     -1.000000000000e+00
    nodepairs_(13,_1)  _C474     -1.000000000000e+00
    nodepairs_(13,_1)  _C848     -1.000000000000e+00
    nodepairs_(13,_1)  _C854     -1.000000000000e+00
    MARK      'MARKER'                 'INTEND'
    MARK      'MARKER'                 'INTORG'
    nodepairs_(13,_11)  _C14       1.000000000000e+00
    nodepairs_(13,_11)  _C37       1.000000000000e+00
    nodepairs_(13,_11)  _C481     -1.000000000000e+00
    nodepairs_(13,_11)  _C485     -1.000000000000e+00
    nodepairs_(13,_11)  _C486     -1.000000000000e+00
    nodepairs_(13,_11)  _C487     -1.000000000000e+00
    nodepairs_(13,_11)  _C1138    -1.000000000000e+00
    nodepairs_(13,_11)  _C1144    -1.000000000000e+00
    MARK      'MARKER'                 'INTEND'
    MARK      'MARKER'                 'INTORG'
    nodepairs_(13,_12)  _C14       1.000000000000e+00
    nodepairs_(13,_12)  _C38       1.000000000000e+00
    nodepairs_(13,_12)  _C485     -1.000000000000e+00
    nodepairs_(13,_12)  _C488     -1.000000000000e+00
    nodepairs_(13,_12)  _C1167    -1.000000000000e+00
    nodepairs_(13,_12)  _C1173    -1.000000000000e+00
    MARK      'MARKER'                 'INTEND'
    MARK      'MARKER'                 'INTORG'
    nodepairs_(13,_13)  _C14       1.000000000000e+00
    nodepairs_(13,_13)  _C39       1.000000000000e+00
    nodepairs_(13,_13)  _C488     -1.000000000000e+00
    nodepairs_(13,_13)  _C489     -1.000000000000e+00
    nodepairs_(13,_13)  _C1196    -1.000000000000e+00
    nodepairs_(13,_13)  _C1202    -1.000000000000e+00
    MARK      'MARKER'                 'INTEND'
    MARK      'MARKER'                 'INTORG'
    nodepairs_(13,_14)  _C14       1.000000000000e+00
    nodepairs_(13,_14)  _C40       1.000000000000e+00
    nodepairs_(13,_14)  _C489     -1.000000000000e+00
    nodepairs_(13,_14)  _C490     -1.000000000000e+00
    nodepairs_(13,_14)  _C1225    -1.000000000000e+00
    nodepairs_(13,_14)  _C1231    -1.000000000000e+00
    MARK      'MARKER'                 'INTEND'
    MARK      'MARKER'                 'INTORG'
    nodepairs_(13,_15)  _C14       1.000000000000e+00
    nodepairs_(13,_15)  _C41       1.000000000000e+00
    nodepairs_(13,_15)  _C490     -1.000000000000e+00
    nodepairs_(13,_15)  _C491     -1.000000000000e+00
    nodepairs_(13,_15)  _C492     -1.000000000000e+00
    nodepairs_(13,_15)  _C493     -1.000000000000e+00
    nodepairs_(13,_15)  _C1254    -1.000000000000e+00
    nodepairs_(13,_15)  _C1260    -1.000000000000e+00
    MARK      'MARKER'                 'INTEND'
    MARK      'MARKER'                 'INTORG'
    nodepairs_(13,_16)  _C14       1.000000000000e+00
    nodepairs_(13,_16)  _C42       1.000000000000e+00
    nodepairs_(13,_16)  _C491     -1.000000000000e+00
    nodepairs_(13,_16)  _C1283    -1.000000000000e+00
    nodepairs_(13,_16)  _C1289    -1.000000000000e+00
    MARK      'MARKER'                 'INTEND'
    MARK      'MARKER'                 'INTORG'
    nodepairs_(13,_17)  _C14       1.000000000000e+00
    nodepairs_(13,_17)  _C43       1.000000000000e+00
    nodepairs_(13,_17)  _C492     -1.000000000000e+00
    nodepairs_(13,_17)  _C1312    -1.000000000000e+00
    nodepairs_(13,_17)  _C1318    -1.000000000000e+00
    MARK      'MARKER'                 'INTEND'
    MARK      'MARKER'                 'INTORG'
    nodepairs_(13,_18)  _C14       1.000000000000e+00
    nodepairs_(13,_18)  _C44       1.000000000000e+00
    nodepairs_(13,_18)  _C486     -1.000000000000e+00
    nodepairs_(13,_18)  _C493     -1.000000000000e+00
    nodepairs_(13,_18)  _C494     -1.000000000000e+00
    nodepairs_(13,_18)  _C1341    -1.000000000000e+00
    nodepairs_(13,_18)  _C1347    -1.000000000000e+00
    MARK      'MARKER'                 'INTEND'
    MARK      'MARKER'                 'INTORG'
    nodepairs_(13,_19)  _C14       1.000000000000e+00
    nodepairs_(13,_19)  _C45       1.000000000000e+00
    nodepairs_(13,_19)  _C494     -1.000000000000e+00
    nodepairs_(13,_19)  _C495     -1.000000000000e+00
    nodepairs_(13,_19)  _C496     -1.000000000000e+00
    nodepairs_(13,_19)  _C1370    -1.000000000000e+00
    nodepairs_(13,_19)  _C1376    -1.000000000000e+00
    MARK      'MARKER'                 'INTEND'
    MARK      'MARKER'                 'INTORG'
    nodepairs_(13,_2)  _C14       1.000000000000e+00
    nodepairs_(13,_2)  _C28       1.000000000000e+00
    nodepairs_(13,_2)  _C473     -1.000000000000e+00
    nodepairs_(13,_2)  _C877     -1.000000000000e+00
    nodepairs_(13,_2)  _C883     -1.000000000000e+00
    MARK      'MARKER'                 'INTEND'
    MARK      'MARKER'                 'INTORG'
    nodepairs_(13,_21)  _C14       1.000000000000e+00
    nodepairs_(13,_21)  _C47       1.000000000000e+00
    nodepairs_(13,_21)  _C479     -1.000000000000e+00
    nodepairs_(13,_21)  _C496     -1.000000000000e+00
    nodepairs_(13,_21)  _C497     -1.000000000000e+00
    nodepairs_(13,_21)  _C1428    -1.000000000000e+00
    nodepairs_(13,_21)  _C1434    -1.000000000000e+00
    MARK      'MARKER'                 'INTEND'
    MARK      'MARKER'                 'INTORG'
    nodepairs_(13,_23)  _C14       1.000000000000e+00
    nodepairs_(13,_23)  _C49       1.000000000000e+00
    nodepairs_(13,_23)  _C487     -1.000000000000e+00
    nodepairs_(13,_23)  _C498     -1.000000000000e+00
    nodepairs_(13,_23)  _C499     -1.000000000000e+00
    nodepairs_(13,_23)  _C1486    -1.000000000000e+00
    nodepairs_(13,_23)  _C1492    -1.000000000000e+00
    MARK      'MARKER'                 'INTEND'
    MARK      'MARKER'                 'INTORG'
    nodepairs_(13,_3)  _C14       1.000000000000e+00
    nodepairs_(13,_3)  _C29       1.000000000000e+00
    nodepairs_(13,_3)  _C474     -1.000000000000e+00
    nodepairs_(13,_3)  _C475     -1.000000000000e+00
    nodepairs_(13,_3)  _C476     -1.000000000000e+00
    nodepairs_(13,_3)  _C906     -1.000000000000e+00
    nodepairs_(13,_3)  _C912     -1.000000000000e+00
    MARK      'MARKER'                 'INTEND'
    MARK      'MARKER'                 'INTORG'
    nodepairs_(13,_4)  _C14       1.000000000000e+00
    nodepairs_(13,_4)  _C30       1.000000000000e+00
    nodepairs_(13,_4)  _C475     -1.000000000000e+00
    nodepairs_(13,_4)  _C477     -1.000000000000e+00
    nodepairs_(13,_4)  _C935     -1.000000000000e+00
    nodepairs_(13,_4)  _C941     -1.000000000000e+00
    MARK      'MARKER'                 'INTEND'
    MARK      'MARKER'                 'INTORG'
    nodepairs_(13,_5)  _C14       1.000000000000e+00
    nodepairs_(13,_5)  _C31       1.000000000000e+00
    nodepairs_(13,_5)  _C477     -1.000000000000e+00
    nodepairs_(13,_5)  _C478     -1.000000000000e+00
    nodepairs_(13,_5)  _C479     -1.000000000000e+00
    nodepairs_(13,_5)  _C964     -1.000000000000e+00
    nodepairs_(13,_5)  _C970     -1.000000000000e+00
    MARK      'MARKER'                 'INTEND'
    MARK      'MARKER'                 'INTORG'
    nodepairs_(13,_6)  _C14       1.000000000000e+00
    nodepairs_(13,_6)  _C32       1.000000000000e+00
    nodepairs_(13,_6)  _C478     -1.000000000000e+00
    nodepairs_(13,_6)  _C480     -1.000000000000e+00
    nodepairs_(13,_6)  _C481     -1.000000000000e+00
    nodepairs_(13,_6)  _C993     -1.000000000000e+00
    nodepairs_(13,_6)  _C999     -1.000000000000e+00
    MARK      'MARKER'                 'INTEND'
    MARK      'MARKER'                 'INTORG'
    nodepairs_(13,_7)  _C14       1.000000000000e+00
    nodepairs_(13,_7)  _C33       1.000000000000e+00
    nodepairs_(13,_7)  _C480     -1.000000000000e+00
    nodepairs_(13,_7)  _C482     -1.000000000000e+00
    nodepairs_(13,_7)  _C483     -1.000000000000e+00
    nodepairs_(13,_7)  _C1022    -1.000000000000e+00
    nodepairs_(13,_7)  _C1028    -1.000000000000e+00
    MARK      'MARKER'                 'INTEND'
    MARK      'MARKER'                 'INTORG'
    nodepairs_(13,_9)  _C14       1.000000000000e+00
    nodepairs_(13,_9)  _C35       1.000000000000e+00
    nodepairs_(13,_9)  _C476     -1.000000000000e+00
    nodepairs_(13,_9)  _C483     -1.000000000000e+00
    nodepairs_(13,_9)  _C484     -1.000000000000e+00
    nodepairs_(13,_9)  _C1080    -1.000000000000e+00
    nodepairs_(13,_9)  _C1086    -1.000000000000e+00
    MARK      'MARKER'                 'INTEND'
    MARK      'MARKER'                 'INTORG'
    nodepairs_(14,_0)  _C15       1.000000000000e+00
    nodepairs_(14,_0)  _C26       1.000000000000e+00
    nodepairs_(14,_0)  _C500     -1.000000000000e+00
    nodepairs_(14,_0)  _C826     -1.000000000000e+00
    nodepairs_(14,_0)  _C827     -1.000000000000e+00
    MARK      'MARKER'                 'INTEND'
    MARK      'MARKER'                 'INTORG'
    nodepairs_(14,_1)  _C15       1.000000000000e+00
    nodepairs_(14,_1)  _C27       1.000000000000e+00
    nodepairs_(14,_1)  _C500     -1.000000000000e+00
    nodepairs_(14,_1)  _C501     -1.000000000000e+00
    nodepairs_(14,_1)  _C502     -1.000000000000e+00
    nodepairs_(14,_1)  _C855     -1.000000000000e+00
    nodepairs_(14,_1)  _C856     -1.000000000000e+00
    MARK      'MARKER'                 'INTEND'
    MARK      'MARKER'                 'INTORG'
    nodepairs_(14,_11)  _C15       1.000000000000e+00
    nodepairs_(14,_11)  _C37       1.000000000000e+00
    nodepairs_(14,_11)  _C509     -1.000000000000e+00
    nodepairs_(14,_11)  _C513     -1.000000000000e+00
    nodepairs_(14,_11)  _C514     -1.000000000000e+00
    nodepairs_(14,_11)  _C515     -1.000000000000e+00
    nodepairs_(14,_11)  _C1145    -1.000000000000e+00
    nodepairs_(14,_11)  _C1146    -1.000000000000e+00
    MARK      'MARKER'                 'INTEND'
    MARK      'MARKER'                 'INTORG'
    nodepairs_(14,_12)  _C15       1.000000000000e+00
    nodepairs_(14,_12)  _C38       1.000000000000e+00
    nodepairs_(14,_12)  _C513     -1.000000000000e+00
    nodepairs_(14,_12)  _C516     -1.000000000000e+00
    nodepairs_(14,_12)  _C1174    -1.000000000000e+00
    nodepairs_(14,_12)  _C1175    -1.000000000000e+00
    MARK      'MARKER'                 'INTEND'
    MARK      'MARKER'                 'INTORG'
    nodepairs_(14,_13)  _C15       1.000000000000e+00
    nodepairs_(14,_13)  _C39       1.000000000000e+00
    nodepairs_(14,_13)  _C516     -1.000000000000e+00
    nodepairs_(14,_13)  _C517     -1.000000000000e+00
    nodepairs_(14,_13)  _C1203    -1.000000000000e+00
    nodepairs_(14,_13)  _C1204    -1.000000000000e+00
    MARK      'MARKER'                 'INTEND'
    MARK      'MARKER'                 'INTORG'
    nodepairs_(14,_14)  _C15       1.000000000000e+00
    nodepairs_(14,_14)  _C40       1.000000000000e+00
    nodepairs_(14,_14)  _C517     -1.000000000000e+00
    nodepairs_(14,_14)  _C518     -1.000000000000e+00
    nodepairs_(14,_14)  _C1232    -1.000000000000e+00
    nodepairs_(14,_14)  _C1233    -1.000000000000e+00
    MARK      'MARKER'                 'INTEND'
    MARK      'MARKER'                 'INTORG'
    nodepairs_(14,_15)  _C15       1.000000000000e+00
    nodepairs_(14,_15)  _C41       1.000000000000e+00
    nodepairs_(14,_15)  _C518     -1.000000000000e+00
    nodepairs_(14,_15)  _C519     -1.000000000000e+00
    nodepairs_(14,_15)  _C520     -1.000000000000e+00
    nodepairs_(14,_15)  _C521     -1.000000000000e+00
    nodepairs_(14,_15)  _C1261    -1.000000000000e+00
    nodepairs_(14,_15)  _C1262    -1.000000000000e+00
    MARK      'MARKER'                 'INTEND'
    MARK      'MARKER'                 'INTORG'
    nodepairs_(14,_16)  _C15       1.000000000000e+00
    nodepairs_(14,_16)  _C42       1.000000000000e+00
    nodepairs_(14,_16)  _C519     -1.000000000000e+00
    nodepairs_(14,_16)  _C1290    -1.000000000000e+00
    nodepairs_(14,_16)  _C1291    -1.000000000000e+00
    MARK      'MARKER'                 'INTEND'
    MARK      'MARKER'                 'INTORG'
    nodepairs_(14,_17)  _C15       1.000000000000e+00
    nodepairs_(14,_17)  _C43       1.000000000000e+00
    nodepairs_(14,_17)  _C520     -1.000000000000e+00
    nodepairs_(14,_17)  _C1319    -1.000000000000e+00
    nodepairs_(14,_17)  _C1320    -1.000000000000e+00
    MARK      'MARKER'                 'INTEND'
    MARK      'MARKER'                 'INTORG'
    nodepairs_(14,_18)  _C15       1.000000000000e+00
    nodepairs_(14,_18)  _C44       1.000000000000e+00
    nodepairs_(14,_18)  _C514     -1.000000000000e+00
    nodepairs_(14,_18)  _C521     -1.000000000000e+00
    nodepairs_(14,_18)  _C522     -1.000000000000e+00
    nodepairs_(14,_18)  _C1348    -1.000000000000e+00
    nodepairs_(14,_18)  _C1349    -1.000000000000e+00
    MARK      'MARKER'                 'INTEND'
    MARK      'MARKER'                 'INTORG'
    nodepairs_(14,_19)  _C15       1.000000000000e+00
    nodepairs_(14,_19)  _C45       1.000000000000e+00
    nodepairs_(14,_19)  _C522     -1.000000000000e+00
    nodepairs_(14,_19)  _C523     -1.000000000000e+00
    nodepairs_(14,_19)  _C524     -1.000000000000e+00
    nodepairs_(14,_19)  _C1377    -1.000000000000e+00
    nodepairs_(14,_19)  _C1378    -1.000000000000e+00
    MARK      'MARKER'                 'INTEND'
    MARK      'MARKER'                 'INTORG'
    nodepairs_(14,_2)  _C15       1.000000000000e+00
    nodepairs_(14,_2)  _C28       1.000000000000e+00
    nodepairs_(14,_2)  _C501     -1.000000000000e+00
    nodepairs_(14,_2)  _C884     -1.000000000000e+00
    nodepairs_(14,_2)  _C885     -1.000000000000e+00
    MARK      'MARKER'                 'INTEND'
    MARK      'MARKER'                 'INTORG'
    nodepairs_(14,_21)  _C15       1.000000000000e+00
    nodepairs_(14,_21)  _C47       1.000000000000e+00
    nodepairs_(14,_21)  _C507     -1.000000000000e+00
    nodepairs_(14,_21)  _C524     -1.000000000000e+00
    nodepairs_(14,_21)  _C525     -1.000000000000e+00
    nodepairs_(14,_21)  _C1435    -1.000000000000e+00
    nodepairs_(14,_21)  _C1436    -1.000000000000e+00
    MARK      'MARKER'                 'INTEND'
    MARK      'MARKER'                 'INTORG'
    nodepairs_(14,_23)  _C15       1.000000000000e+00
    nodepairs_(14,_23)  _C49       1.000000000000e+00
    nodepairs_(14,_23)  _C515     -1.000000000000e+00
    nodepairs_(14,_23)  _C526     -1.000000000000e+00
    nodepairs_(14,_23)  _C527     -1.000000000000e+00
    nodepairs_(14,_23)  _C1493    -1.000000000000e+00
    nodepairs_(14,_23)  _C1494    -1.000000000000e+00
    MARK      'MARKER'                 'INTEND'
    MARK      'MARKER'                 'INTORG'
    nodepairs_(14,_3)  _C15       1.000000000000e+00
    nodepairs_(14,_3)  _C29       1.000000000000e+00
    nodepairs_(14,_3)  _C502     -1.000000000000e+00
    nodepairs_(14,_3)  _C503     -1.000000000000e+00
    nodepairs_(14,_3)  _C504     -1.000000000000e+00
    nodepairs_(14,_3)  _C913     -1.000000000000e+00
    nodepairs_(14,_3)  _C914     -1.000000000000e+00
    MARK      'MARKER'                 'INTEND'
    MARK      'MARKER'                 'INTORG'
    nodepairs_(14,_4)  _C15       1.000000000000e+00
    nodepairs_(14,_4)  _C30       1.000000000000e+00
    nodepairs_(14,_4)  _C503     -1.000000000000e+00
    nodepairs_(14,_4)  _C505     -1.000000000000e+00
    nodepairs_(14,_4)  _C942     -1.000000000000e+00
    nodepairs_(14,_4)  _C943     -1.000000000000e+00
    MARK      'MARKER'                 'INTEND'
    MARK      'MARKER'                 'INTORG'
    nodepairs_(14,_5)  _C15       1.000000000000e+00
    nodepairs_(14,_5)  _C31       1.000000000000e+00
    nodepairs_(14,_5)  _C505     -1.000000000000e+00
    nodepairs_(14,_5)  _C506     -1.000000000000e+00
    nodepairs_(14,_5)  _C507     -1.000000000000e+00
    nodepairs_(14,_5)  _C971     -1.000000000000e+00
    nodepairs_(14,_5)  _C972     -1.000000000000e+00
    MARK      'MARKER'                 'INTEND'
    MARK      'MARKER'                 'INTORG'
    nodepairs_(14,_6)  _C15       1.000000000000e+00
    nodepairs_(14,_6)  _C32       1.000000000000e+00
    nodepairs_(14,_6)  _C506     -1.000000000000e+00
    nodepairs_(14,_6)  _C508     -1.000000000000e+00
    nodepairs_(14,_6)  _C509     -1.000000000000e+00
    nodepairs_(14,_6)  _C1000    -1.000000000000e+00
    nodepairs_(14,_6)  _C1001    -1.000000000000e+00
    MARK      'MARKER'                 'INTEND'
    MARK      'MARKER'                 'INTORG'
    nodepairs_(14,_7)  _C15       1.000000000000e+00
    nodepairs_(14,_7)  _C33       1.000000000000e+00
    nodepairs_(14,_7)  _C508     -1.000000000000e+00
    nodepairs_(14,_7)  _C510     -1.000000000000e+00
    nodepairs_(14,_7)  _C511     -1.000000000000e+00
    nodepairs_(14,_7)  _C1029    -1.000000000000e+00
    nodepairs_(14,_7)  _C1030    -1.000000000000e+00
    MARK      'MARKER'                 'INTEND'
    MARK      'MARKER'                 'INTORG'
    nodepairs_(14,_9)  _C15       1.000000000000e+00
    nodepairs_(14,_9)  _C35       1.000000000000e+00
    nodepairs_(14,_9)  _C504     -1.000000000000e+00
    nodepairs_(14,_9)  _C511     -1.000000000000e+00
    nodepairs_(14,_9)  _C512     -1.000000000000e+00
    nodepairs_(14,_9)  _C1087    -1.000000000000e+00
    nodepairs_(14,_9)  _C1088    -1.000000000000e+00
    MARK      'MARKER'                 'INTEND'
    MARK      'MARKER'                 'INTORG'
    nodepairs_(15,_0)  _C16       1.000000000000e+00
    nodepairs_(15,_0)  _C26       1.000000000000e+00
    nodepairs_(15,_0)  _C528     -1.000000000000e+00
    nodepairs_(15,_0)  _C827     -1.000000000000e+00
    nodepairs_(15,_0)  _C828     -1.000000000000e+00
    MARK      'MARKER'                 'INTEND'
    MARK      'MARKER'                 'INTORG'
    nodepairs_(15,_1)  _C16       1.000000000000e+00
    nodepairs_(15,_1)  _C27       1.000000000000e+00
    nodepairs_(15,_1)  _C528     -1.000000000000e+00
    nodepairs_(15,_1)  _C529     -1.000000000000e+00
    nodepairs_(15,_1)  _C530     -1.000000000000e+00
    nodepairs_(15,_1)  _C856     -1.000000000000e+00
    nodepairs_(15,_1)  _C857     -1.000000000000e+00
    MARK      'MARKER'                 'INTEND'
    MARK      'MARKER'                 'INTORG'
    nodepairs_(15,_11)  _C16       1.000000000000e+00
    nodepairs_(15,_11)  _C37       1.000000000000e+00
    nodepairs_(15,_11)  _C537     -1.000000000000e+00
    nodepairs_(15,_11)  _C541     -1.000000000000e+00
    nodepairs_(15,_11)  _C542     -1.000000000000e+00
    nodepairs_(15,_11)  _C543     -1.000000000000e+00
    nodepairs_(15,_11)  _C1146    -1.000000000000e+00
    nodepairs_(15,_11)  _C1147    -1.000000000000e+00
    MARK      'MARKER'                 'INTEND'
    MARK      'MARKER'                 'INTORG'
    nodepairs_(15,_12)  _C16       1.000000000000e+00
    nodepairs_(15,_12)  _C38       1.000000000000e+00
    nodepairs_(15,_12)  _C541     -1.000000000000e+00
    nodepairs_(15,_12)  _C544     -1.000000000000e+00
    nodepairs_(15,_12)  _C1175    -1.000000000000e+00
    nodepairs_(15,_12)  _C1176    -1.000000000000e+00
    MARK      'MARKER'                 'INTEND'
    MARK      'MARKER'                 'INTORG'
    nodepairs_(15,_13)  _C16       1.000000000000e+00
    nodepairs_(15,_13)  _C39       1.000000000000e+00
    nodepairs_(15,_13)  _C544     -1.000000000000e+00
    nodepairs_(15,_13)  _C545     -1.000000000000e+00
    nodepairs_(15,_13)  _C1204    -1.000000000000e+00
    nodepairs_(15,_13)  _C1205    -1.000000000000e+00
    MARK      'MARKER'                 'INTEND'
    MARK      'MARKER'                 'INTORG'
    nodepairs_(15,_14)  _C16       1.000000000000e+00
    nodepairs_(15,_14)  _C40       1.000000000000e+00
    nodepairs_(15,_14)  _C545     -1.000000000000e+00
    nodepairs_(15,_14)  _C546     -1.000000000000e+00
    nodepairs_(15,_14)  _C1233    -1.000000000000e+00
    nodepairs_(15,_14)  _C1234    -1.000000000000e+00
    MARK      'MARKER'                 'INTEND'
    MARK      'MARKER'                 'INTORG'
    nodepairs_(15,_15)  _C16       1.000000000000e+00
    nodepairs_(15,_15)  _C41       1.000000000000e+00
    nodepairs_(15,_15)  _C546     -1.000000000000e+00
    nodepairs_(15,_15)  _C547     -1.000000000000e+00
    nodepairs_(15,_15)  _C548     -1.000000000000e+00
    nodepairs_(15,_15)  _C549     -1.000000000000e+00
    nodepairs_(15,_15)  _C1262    -1.000000000000e+00
    nodepairs_(15,_15)  _C1263    -1.000000000000e+00
    MARK      'MARKER'                 'INTEND'
    MARK      'MARKER'                 'INTORG'
    nodepairs_(15,_16)  _C16       1.000000000000e+00
    nodepairs_(15,_16)  _C42       1.000000000000e+00
    nodepairs_(15,_16)  _C547     -1.000000000000e+00
    nodepairs_(15,_16)  _C1291    -1.000000000000e+00
    nodepairs_(15,_16)  _C1292    -1.000000000000e+00
    MARK      'MARKER'                 'INTEND'
    MARK      'MARKER'                 'INTORG'
    nodepairs_(15,_17)  _C16       1.000000000000e+00
    nodepairs_(15,_17)  _C43       1.000000000000e+00
    nodepairs_(15,_17)  _C548     -1.000000000000e+00
    nodepairs_(15,_17)  _C1320    -1.000000000000e+00
    nodepairs_(15,_17)  _C1321    -1.000000000000e+00
    MARK      'MARKER'                 'INTEND'
    MARK      'MARKER'                 'INTORG'
    nodepairs_(15,_18)  _C16       1.000000000000e+00
    nodepairs_(15,_18)  _C44       1.000000000000e+00
    nodepairs_(15,_18)  _C542     -1.000000000000e+00
    nodepairs_(15,_18)  _C549     -1.000000000000e+00
    nodepairs_(15,_18)  _C550     -1.000000000000e+00
    nodepairs_(15,_18)  _C1349    -1.000000000000e+00
    nodepairs_(15,_18)  _C1350    -1.000000000000e+00
    MARK      'MARKER'                 'INTEND'
    MARK      'MARKER'                 'INTORG'
    nodepairs_(15,_19)  _C16       1.000000000000e+00
    nodepairs_(15,_19)  _C45       1.000000000000e+00
    nodepairs_(15,_19)  _C550     -1.000000000000e+00
    nodepairs_(15,_19)  _C551     -1.000000000000e+00
    nodepairs_(15,_19)  _C552     -1.000000000000e+00
    nodepairs_(15,_19)  _C1378    -1.000000000000e+00
    nodepairs_(15,_19)  _C1379    -1.000000000000e+00
    MARK      'MARKER'                 'INTEND'
    MARK      'MARKER'                 'INTORG'
    nodepairs_(15,_2)  _C16       1.000000000000e+00
    nodepairs_(15,_2)  _C28       1.000000000000e+00
    nodepairs_(15,_2)  _C529     -1.000000000000e+00
    nodepairs_(15,_2)  _C885     -1.000000000000e+00
    nodepairs_(15,_2)  _C886     -1.000000000000e+00
    MARK      'MARKER'                 'INTEND'
    MARK      'MARKER'                 'INTORG'
    nodepairs_(15,_21)  _C16       1.000000000000e+00
    nodepairs_(15,_21)  _C47       1.000000000000e+00
    nodepairs_(15,_21)  _C535     -1.000000000000e+00
    nodepairs_(15,_21)  _C552     -1.000000000000e+00
    nodepairs_(15,_21)  _C553     -1.000000000000e+00
    nodepairs_(15,_21)  _C1436    -1.000000000000e+00
    nodepairs_(15,_21)  _C1437    -1.000000000000e+00
    MARK      'MARKER'                 'INTEND'
    MARK      'MARKER'                 'INTORG'
    nodepairs_(15,_23)  _C16       1.000000000000e+00
    nodepairs_(15,_23)  _C49       1.000000000000e+00
    nodepairs_(15,_23)  _C543     -1.000000000000e+00
    nodepairs_(15,_23)  _C554     -1.000000000000e+00
    nodepairs_(15,_23)  _C555     -1.000000000000e+00
    nodepairs_(15,_23)  _C1494    -1.000000000000e+00
    nodepairs_(15,_23)  _C1495    -1.000000000000e+00
    MARK      'MARKER'                 'INTEND'
    MARK      'MARKER'                 'INTORG'
    nodepairs_(15,_3)  _C16       1.000000000000e+00
    nodepairs_(15,_3)  _C29       1.000000000000e+00
    nodepairs_(15,_3)  _C530     -1.000000000000e+00
    nodepairs_(15,_3)  _C531     -1.000000000000e+00
    nodepairs_(15,_3)  _C532     -1.000000000000e+00
    nodepairs_(15,_3)  _C914     -1.000000000000e+00
    nodepairs_(15,_3)  _C915     -1.000000000000e+00
    MARK      'MARKER'                 'INTEND'
    MARK      'MARKER'                 'INTORG'
    nodepairs_(15,_4)  _C16       1.000000000000e+00
    nodepairs_(15,_4)  _C30       1.000000000000e+00
    nodepairs_(15,_4)  _C531     -1.000000000000e+00
    nodepairs_(15,_4)  _C533     -1.000000000000e+00
    nodepairs_(15,_4)  _C943     -1.000000000000e+00
    nodepairs_(15,_4)  _C944     -1.000000000000e+00
    MARK      'MARKER'                 'INTEND'
    MARK      'MARKER'                 'INTORG'
    nodepairs_(15,_5)  _C16       1.000000000000e+00
    nodepairs_(15,_5)  _C31       1.000000000000e+00
    nodepairs_(15,_5)  _C533     -1.000000000000e+00
    nodepairs_(15,_5)  _C534     -1.000000000000e+00
    nodepairs_(15,_5)  _C535     -1.000000000000e+00
    nodepairs_(15,_5)  _C972     -1.000000000000e+00
    nodepairs_(15,_5)  _C973     -1.000000000000e+00
    MARK      'MARKER'                 'INTEND'
    MARK      'MARKER'                 'INTORG'
    nodepairs_(15,_6)  _C16       1.000000000000e+00
    nodepairs_(15,_6)  _C32       1.000000000000e+00
    nodepairs_(15,_6)  _C534     -1.000000000000e+00
    nodepairs_(15,_6)  _C536     -1.000000000000e+00
    nodepairs_(15,_6)  _C537     -1.000000000000e+00
    nodepairs_(15,_6)  _C1001    -1.000000000000e+00
    nodepairs_(15,_6)  _C1002    -1.000000000000e+00
    MARK      'MARKER'                 'INTEND'
    MARK      'MARKER'                 'INTORG'
    nodepairs_(15,_7)  _C16       1.000000000000e+00
    nodepairs_(15,_7)  _C33       1.000000000000e+00
    nodepairs_(15,_7)  _C536     -1.000000000000e+00
    nodepairs_(15,_7)  _C538     -1.000000000000e+00
    nodepairs_(15,_7)  _C539     -1.000000000000e+00
    nodepairs_(15,_7)  _C1030    -1.000000000000e+00
    nodepairs_(15,_7)  _C1031    -1.000000000000e+00
    MARK      'MARKER'                 'INTEND'
    MARK      'MARKER'                 'INTORG'
    nodepairs_(15,_9)  _C16       1.000000000000e+00
    nodepairs_(15,_9)  _C35       1.000000000000e+00
    nodepairs_(15,_9)  _C532     -1.000000000000e+00
    nodepairs_(15,_9)  _C539     -1.000000000000e+00
    nodepairs_(15,_9)  _C540     -1.000000000000e+00
    nodepairs_(15,_9)  _C1088    -1.000000000000e+00
    nodepairs_(15,_9)  _C1089    -1.000000000000e+00
    MARK      'MARKER'                 'INTEND'
    MARK      'MARKER'                 'INTORG'
    nodepairs_(16,_0)  _C17       1.000000000000e+00
    nodepairs_(16,_0)  _C26       1.000000000000e+00
    nodepairs_(16,_0)  _C556     -1.000000000000e+00
    nodepairs_(16,_0)  _C820     -1.000000000000e+00
    nodepairs_(16,_0)  _C828     -1.000000000000e+00
    nodepairs_(16,_0)  _C829     -1.000000000000e+00
    MARK      'MARKER'                 'INTEND'
    MARK      'MARKER'                 'INTORG'
    nodepairs_(16,_1)  _C17       1.000000000000e+00
    nodepairs_(16,_1)  _C27       1.000000000000e+00
    nodepairs_(16,_1)  _C556     -1.000000000000e+00
    nodepairs_(16,_1)  _C557     -1.000000000000e+00
    nodepairs_(16,_1)  _C558     -1.000000000000e+00
    nodepairs_(16,_1)  _C849     -1.000000000000e+00
    nodepairs_(16,_1)  _C857     -1.000000000000e+00
    nodepairs_(16,_1)  _C858     -1.000000000000e+00
    MARK      'MARKER'                 'INTEND'
    MARK      'MARKER'                 'INTORG'
    nodepairs_(16,_11)  _C17       1.000000000000e+00
    nodepairs_(16,_11)  _C37       1.000000000000e+00
    nodepairs_(16,_11)  _C565     -1.000000000000e+00
    nodepairs_(16,_11)  _C569     -1.000000000000e+00
    nodepairs_(16,_11)  _C570     -1.000000000000e+00
    nodepairs_(16,_11)  _C571     -1.000000000000e+00
    nodepairs_(16,_11)  _C1139    -1.000000000000e+00
    nodepairs_(16,_11)  _C1147    -1.000000000000e+00
    nodepairs_(16,_11)  _C1148    -1.000000000000e+00
    MARK      'MARKER'                 'INTEND'
    MARK      'MARKER'                 'INTORG'
    nodepairs_(16,_12)  _C17       1.000000000000e+00
    nodepairs_(16,_12)  _C38       1.000000000000e+00
    nodepairs_(16,_12)  _C569     -1.000000000000e+00
    nodepairs_(16,_12)  _C572     -1.000000000000e+00
    nodepairs_(16,_12)  _C1168    -1.000000000000e+00
    nodepairs_(16,_12)  _C1176    -1.000000000000e+00
    nodepairs_(16,_12)  _C1177    -1.000000000000e+00
    MARK      'MARKER'                 'INTEND'
    MARK      'MARKER'                 'INTORG'
    nodepairs_(16,_13)  _C17       1.000000000000e+00
    nodepairs_(16,_13)  _C39       1.000000000000e+00
    nodepairs_(16,_13)  _C572     -1.000000000000e+00
    nodepairs_(16,_13)  _C573     -1.000000000000e+00
    nodepairs_(16,_13)  _C1197    -1.000000000000e+00
    nodepairs_(16,_13)  _C1205    -1.000000000000e+00
    nodepairs_(16,_13)  _C1206    -1.000000000000e+00
    MARK      'MARKER'                 'INTEND'
    MARK      'MARKER'                 'INTORG'
    nodepairs_(16,_14)  _C17       1.000000000000e+00
    nodepairs_(16,_14)  _C40       1.000000000000e+00
    nodepairs_(16,_14)  _C573     -1.000000000000e+00
    nodepairs_(16,_14)  _C574     -1.000000000000e+00
    nodepairs_(16,_14)  _C1226    -1.000000000000e+00
    nodepairs_(16,_14)  _C1234    -1.000000000000e+00
    nodepairs_(16,_14)  _C1235    -1.000000000000e+00
    MARK      'MARKER'                 'INTEND'
    MARK      'MARKER'                 'INTORG'
    nodepairs_(16,_15)  _C17       1.000000000000e+00
    nodepairs_(16,_15)  _C41       1.000000000000e+00
    nodepairs_(16,_15)  _C574     -1.000000000000e+00
    nodepairs_(16,_15)  _C575     -1.000000000000e+00
    nodepairs_(16,_15)  _C576     -1.000000000000e+00
    nodepairs_(16,_15)  _C577     -1.000000000000e+00
    nodepairs_(16,_15)  _C1255    -1.000000000000e+00
    nodepairs_(16,_15)  _C1263    -1.000000000000e+00
    nodepairs_(16,_15)  _C1264    -1.000000000000e+00
    MARK      'MARKER'                 'INTEND'
    MARK      'MARKER'                 'INTORG'
    nodepairs_(16,_16)  _C17       1.000000000000e+00
    nodepairs_(16,_16)  _C42       1.000000000000e+00
    nodepairs_(16,_16)  _C575     -1.000000000000e+00
    nodepairs_(16,_16)  _C1284    -1.000000000000e+00
    nodepairs_(16,_16)  _C1292    -1.000000000000e+00
    nodepairs_(16,_16)  _C1293    -1.000000000000e+00
    MARK      'MARKER'                 'INTEND'
    MARK      'MARKER'                 'INTORG'
    nodepairs_(16,_17)  _C17       1.000000000000e+00
    nodepairs_(16,_17)  _C43       1.000000000000e+00
    nodepairs_(16,_17)  _C576     -1.000000000000e+00
    nodepairs_(16,_17)  _C1313    -1.000000000000e+00
    nodepairs_(16,_17)  _C1321    -1.000000000000e+00
    nodepairs_(16,_17)  _C1322    -1.000000000000e+00
    MARK      'MARKER'                 'INTEND'
    MARK      'MARKER'                 'INTORG'
    nodepairs_(16,_18)  _C17       1.000000000000e+00
    nodepairs_(16,_18)  _C44       1.000000000000e+00
    nodepairs_(16,_18)  _C570     -1.000000000000e+00
    nodepairs_(16,_18)  _C577     -1.000000000000e+00
    nodepairs_(16,_18)  _C578     -1.000000000000e+00
    nodepairs_(16,_18)  _C1342    -1.000000000000e+00
    nodepairs_(16,_18)  _C1350    -1.000000000000e+00
    nodepairs_(16,_18)  _C1351    -1.000000000000e+00
    MARK      'MARKER'                 'INTEND'
    MARK      'MARKER'                 'INTORG'
    nodepairs_(16,_19)  _C17       1.000000000000e+00
    nodepairs_(16,_19)  _C45       1.000000000000e+00
    nodepairs_(16,_19)  _C578     -1.000000000000e+00
    nodepairs_(16,_19)  _C579     -1.000000000000e+00
    nodepairs_(16,_19)  _C580     -1.000000000000e+00
    nodepairs_(16,_19)  _C1371    -1.000000000000e+00
    nodepairs_(16,_19)  _C1379    -1.000000000000e+00
    nodepairs_(16,_19)  _C1380    -1.000000000000e+00
    MARK      'MARKER'                 'INTEND'
    MARK      'MARKER'                 'INTORG'
    nodepairs_(16,_2)  _C17       1.000000000000e+00
    nodepairs_(16,_2)  _C28       1.000000000000e+00
    nodepairs_(16,_2)  _C557     -1.000000000000e+00
    nodepairs_(16,_2)  _C878     -1.000000000000e+00
    nodepairs_(16,_2)  _C886     -1.000000000000e+00
    nodepairs_(16,_2)  _C887     -1.000000000000e+00
    MARK      'MARKER'                 'INTEND'
    MARK      'MARKER'                 'INTORG'
    nodepairs_(16,_21)  _C17       1.000000000000e+00
    nodepairs_(16,_21)  _C47       1.000000000000e+00
    nodepairs_(16,_21)  _C563     -1.000000000000e+00
    nodepairs_(16,_21)  _C580     -1.000000000000e+00
    nodepairs_(16,_21)  _C581     -1.000000000000e+00
    nodepairs_(16,_21)  _C1429    -1.000000000000e+00
    nodepairs_(16,_21)  _C1437    -1.000000000000e+00
    nodepairs_(16,_21)  _C1438    -1.000000000000e+00
    MARK      'MARKER'                 'INTEND'
    MARK      'MARKER'                 'INTORG'
    nodepairs_(16,_23)  _C17       1.000000000000e+00
    nodepairs_(16,_23)  _C49       1.000000000000e+00
    nodepairs_(16,_23)  _C571     -1.000000000000e+00
    nodepairs_(16,_23)  _C582     -1.000000000000e+00
    nodepairs_(16,_23)  _C583     -1.000000000000e+00
    nodepairs_(16,_23)  _C1487    -1.000000000000e+00
    nodepairs_(16,_23)  _C1495    -1.000000000000e+00
    nodepairs_(16,_23)  _C1496    -1.000000000000e+00
    MARK      'MARKER'                 'INTEND'
    MARK      'MARKER'                 'INTORG'
    nodepairs_(16,_3)  _C17       1.000000000000e+00
    nodepairs_(16,_3)  _C29       1.000000000000e+00
    nodepairs_(16,_3)  _C558     -1.000000000000e+00
    nodepairs_(16,_3)  _C559     -1.000000000000e+00
    nodepairs_(16,_3)  _C560     -1.000000000000e+00
    nodepairs_(16,_3)  _C907     -1.000000000000e+00
    nodepairs_(16,_3)  _C915     -1.000000000000e+00
    nodepairs_(16,_3)  _C916     -1.000000000000e+00
    MARK      'MARKER'                 'INTEND'
    MARK      'MARKER'                 'INTORG'
    nodepairs_(16,_4)  _C17       1.000000000000e+00
    nodepairs_(16,_4)  _C30       1.000000000000e+00
    nodepairs_(16,_4)  _C559     -1.000000000000e+00
    nodepairs_(16,_4)  _C561     -1.000000000000e+00
    nodepairs_(16,_4)  _C936     -1.000000000000e+00
    nodepairs_(16,_4)  _C944     -1.000000000000e+00
    nodepairs_(16,_4)  _C945     -1.000000000000e+00
    MARK      'MARKER'                 'INTEND'
    MARK      'MARKER'                 'INTORG'
    nodepairs_(16,_5)  _C17       1.000000000000e+00
    nodepairs_(16,_5)  _C31       1.000000000000e+00
    nodepairs_(16,_5)  _C561     -1.000000000000e+00
    nodepairs_(16,_5)  _C562     -1.000000000000e+00
    nodepairs_(16,_5)  _C563     -1.000000000000e+00
    nodepairs_(16,_5)  _C965     -1.000000000000e+00
    nodepairs_(16,_5)  _C973     -1.000000000000e+00
    nodepairs_(16,_5)  _C974     -1.000000000000e+00
    MARK      'MARKER'                 'INTEND'
    MARK      'MARKER'                 'INTORG'
    nodepairs_(16,_6)  _C17       1.000000000000e+00
    nodepairs_(16,_6)  _C32       1.000000000000e+00
    nodepairs_(16,_6)  _C562     -1.000000000000e+00
    nodepairs_(16,_6)  _C564     -1.000000000000e+00
    nodepairs_(16,_6)  _C565     -1.000000000000e+00
    nodepairs_(16,_6)  _C994     -1.000000000000e+00
    nodepairs_(16,_6)  _C1002    -1.000000000000e+00
    nodepairs_(16,_6)  _C1003    -1.000000000000e+00
    MARK      'MARKER'                 'INTEND'
    MARK      'MARKER'                 'INTORG'
    nodepairs_(16,_7)  _C17       1.000000000000e+00
    nodepairs_(16,_7)  _C33       1.000000000000e+00
    nodepairs_(16,_7)  _C564     -1.000000000000e+00
    nodepairs_(16,_7)  _C566     -1.000000000000e+00
    nodepairs_(16,_7)  _C567     -1.000000000000e+00
    nodepairs_(16,_7)  _C1023    -1.000000000000e+00
    nodepairs_(16,_7)  _C1031    -1.000000000000e+00
    nodepairs_(16,_7)  _C1032    -1.000000000000e+00
    MARK      'MARKER'                 'INTEND'
    MARK      'MARKER'                 'INTORG'
    nodepairs_(16,_9)  _C17       1.000000000000e+00
    nodepairs_(16,_9)  _C35       1.000000000000e+00
    nodepairs_(16,_9)  _C560     -1.000000000000e+00
    nodepairs_(16,_9)  _C567     -1.000000000000e+00
    nodepairs_(16,_9)  _C568     -1.000000000000e+00
    nodepairs_(16,_9)  _C1081    -1.000000000000e+00
    nodepairs_(16,_9)  _C1089    -1.000000000000e+00
    nodepairs_(16,_9)  _C1090    -1.000000000000e+00
    MARK      'MARKER'                 'INTEND'
    MARK      'MARKER'                 'INTORG'
    nodepairs_(17,_0)  _C18       1.000000000000e+00
    nodepairs_(17,_0)  _C26       1.000000000000e+00
    nodepairs_(17,_0)  _C584     -1.000000000000e+00
    nodepairs_(17,_0)  _C813     -1.000000000000e+00
    nodepairs_(17,_0)  _C829     -1.000000000000e+00
    nodepairs_(17,_0)  _C830     -1.000000000000e+00
    nodepairs_(17,_0)  _C831     -1.000000000000e+00
    MARK      'MARKER'                 'INTEND'
    MARK      'MARKER'                 'INTORG'
    nodepairs_(17,_1)  _C18       1.000000000000e+00
    nodepairs_(17,_1)  _C27       1.000000000000e+00
    nodepairs_(17,_1)  _C584     -1.000000000000e+00
    nodepairs_(17,_1)  _C585     -1.000000000000e+00
    nodepairs_(17,_1)  _C586     -1.000000000000e+00
    nodepairs_(17,_1)  _C842     -1.000000000000e+00
    nodepairs_(17,_1)  _C858     -1.000000000000e+00
    nodepairs_(17,_1)  _C859     -1.000000000000e+00
    nodepairs_(17,_1)  _C860     -1.000000000000e+00
    MARK      'MARKER'                 'INTEND'
    MARK      'MARKER'                 'INTORG'
    nodepairs_(17,_11)  _C18       1.000000000000e+00
    nodepairs_(17,_11)  _C37       1.000000000000e+00
    nodepairs_(17,_11)  _C593     -1.000000000000e+00
    nodepairs_(17,_11)  _C597     -1.000000000000e+00
    nodepairs_(17,_11)  _C598     -1.000000000000e+00
    nodepairs_(17,_11)  _C599     -1.000000000000e+00
    nodepairs_(17,_11)  _C1132    -1.000000000000e+00
    nodepairs_(17,_11)  _C1148    -1.000000000000e+00
    nodepairs_(17,_11)  _C1149    -1.000000000000e+00
    nodepairs_(17,_11)  _C1150    -1.000000000000e+00
    MARK      'MARKER'                 'INTEND'
    MARK      'MARKER'                 'INTORG'
    nodepairs_(17,_12)  _C18       1.000000000000e+00
    nodepairs_(17,_12)  _C38       1.000000000000e+00
    nodepairs_(17,_12)  _C597     -1.000000000000e+00
    nodepairs_(17,_12)  _C600     -1.000000000000e+00
    nodepairs_(17,_12)  _C1161    -1.000000000000e+00
    nodepairs_(17,_12)  _C1177    -1.000000000000e+00
    nodepairs_(17,_12)  _C1178    -1.000000000000e+00
    nodepairs_(17,_12)  _C1179    -1.000000000000e+00
    MARK      'MARKER'                 'INTEND'
    MARK      'MARKER'                 'INTORG'
    nodepairs_(17,_13)  _C18       1.000000000000e+00
    nodepairs_(17,_13)  _C39       1.000000000000e+00
    nodepairs_(17,_13)  _C600     -1.000000000000e+00
    nodepairs_(17,_13)  _C601     -1.000000000000e+00
    nodepairs_(17,_13)  _C1190    -1.000000000000e+00
    nodepairs_(17,_13)  _C1206    -1.000000000000e+00
    nodepairs_(17,_13)  _C1207    -1.000000000000e+00
    nodepairs_(17,_13)  _C1208    -1.000000000000e+00
    MARK      'MARKER'                 'INTEND'
    MARK      'MARKER'                 'INTORG'
    nodepairs_(17,_14)  _C18       1.000000000000e+00
    nodepairs_(17,_14)  _C40       1.000000000000e+00
    nodepairs_(17,_14)  _C601     -1.000000000000e+00
    nodepairs_(17,_14)  _C602     -1.000000000000e+00
    nodepairs_(17,_14)  _C1219    -1.000000000000e+00
    nodepairs_(17,_14)  _C1235    -1.000000000000e+00
    nodepairs_(17,_14)  _C1236    -1.000000000000e+00
    nodepairs_(17,_14)  _C1237    -1.000000000000e+00
    MARK      'MARKER'                 'INTEND'
    MARK      'MARKER'                 'INTORG'
    nodepairs_(17,_15)  _C18       1.000000000000e+00
    nodepairs_(17,_15)  _C41       1.000000000000e+00
    nodepairs_(17,_15)  _C602     -1.000000000000e+00
    nodepairs_(17,_15)  _C603     -1.000000000000e+00
    nodepairs_(17,_15)  _C604     -1.000000000000e+00
    nodepairs_(17,_15)  _C605     -1.000000000000e+00
    nodepairs_(17,_15)  _C1248    -1.000000000000e+00
    nodepairs_(17,_15)  _C1264    -1.000000000000e+00
    nodepairs_(17,_15)  _C1265    -1.000000000000e+00
    nodepairs_(17,_15)  _C1266    -1.000000000000e+00
    MARK      'MARKER'                 'INTEND'
    MARK      'MARKER'                 'INTORG'
    nodepairs_(17,_16)  _C18       1.000000000000e+00
    nodepairs_(17,_16)  _C42       1.000000000000e+00
    nodepairs_(17,_16)  _C603     -1.000000000000e+00
    nodepairs_(17,_16)  _C1277    -1.000000000000e+00
    nodepairs_(17,_16)  _C1293    -1.000000000000e+00
    nodepairs_(17,_16)  _C1294    -1.000000000000e+00
    nodepairs_(17,_16)  _C1295    -1.000000000000e+00
    MARK      'MARKER'                 'INTEND'
    MARK      'MARKER'                 'INTORG'
    nodepairs_(17,_17)  _C18       1.000000000000e+00
    nodepairs_(17,_17)  _C43       1.000000000000e+00
    nodepairs_(17,_17)  _C604     -1.000000000000e+00
    nodepairs_(17,_17)  _C1306    -1.000000000000e+00
    nodepairs_(17,_17)  _C1322    -1.000000000000e+00
    nodepairs_(17,_17)  _C1323    -1.000000000000e+00
    nodepairs_(17,_17)  _C1324    -1.000000000000e+00
    MARK      'MARKER'                 'INTEND'
    MARK      'MARKER'                 'INTORG'
    nodepairs_(17,_18)  _C18       1.000000000000e+00
    nodepairs_(17,_18)  _C44       1.000000000000e+00
    nodepairs_(17,_18)  _C598     -1.000000000000e+00
    nodepairs_(17,_18)  _C605     -1.000000000000e+00
    nodepairs_(17,_18)  _C606     -1.000000000000e+00
    nodepairs_(17,_18)  _C1335    -1.000000000000e+00
    nodepairs_(17,_18)  _C1351    -1.000000000000e+00
    nodepairs_(17,_18)  _C1352    -1.000000000000e+00
    nodepairs_(17,_18)  _C1353    -1.000000000000e+00
    MARK      'MARKER'                 'INTEND'
    MARK      'MARKER'                 'INTORG'
    nodepairs_(17,_19)  _C18       1.000000000000e+00
    nodepairs_(17,_19)  _C45       1.000000000000e+00
    nodepairs_(17,_19)  _C606     -1.000000000000e+00
    nodepairs_(17,_19)  _C607     -1.000000000000e+00
    nodepairs_(17,_19)  _C608     -1.000000000000e+00
    nodepairs_(17,_19)  _C1364    -1.000000000000e+00
    nodepairs_(17,_19)  _C1380    -1.000000000000e+00
    nodepairs_(17,_19)  _C1381    -1.000000000000e+00
    nodepairs_(17,_19)  _C1382    -1.000000000000e+00
    MARK      'MARKER'                 'INTEND'
    MARK      'MARKER'                 'INTORG'
    nodepairs_(17,_2)  _C18       1.000000000000e+00
    nodepairs_(17,_2)  _C28       1.000000000000e+00
    nodepairs_(17,_2)  _C585     -1.000000000000e+00
    nodepairs_(17,_2)  _C871     -1.000000000000e+00
    nodepairs_(17,_2)  _C887     -1.000000000000e+00
    nodepairs_(17,_2)  _C888     -1.000000000000e+00
    nodepairs_(17,_2)  _C889     -1.000000000000e+00
    MARK      'MARKER'                 'INTEND'
    MARK      'MARKER'                 'INTORG'
    nodepairs_(17,_21)  _C18       1.000000000000e+00
    nodepairs_(17,_21)  _C47       1.000000000000e+00
    nodepairs_(17,_21)  _C591     -1.000000000000e+00
    nodepairs_(17,_21)  _C608     -1.000000000000e+00
    nodepairs_(17,_21)  _C609     -1.000000000000e+00
    nodepairs_(17,_21)  _C1422    -1.000000000000e+00
    nodepairs_(17,_21)  _C1438    -1.000000000000e+00
    nodepairs_(17,_21)  _C1439    -1.000000000000e+00
    nodepairs_(17,_21)  _C1440    -1.000000000000e+00
    MARK      'MARKER'                 'INTEND'
    MARK      'MARKER'                 'INTORG'
    nodepairs_(17,_23)  _C18       1.000000000000e+00
    nodepairs_(17,_23)  _C49       1.000000000000e+00
    nodepairs_(17,_23)  _C599     -1.000000000000e+00
    nodepairs_(17,_23)  _C610     -1.000000000000e+00
    nodepairs_(17,_23)  _C611     -1.000000000000e+00
    nodepairs_(17,_23)  _C1480    -1.000000000000e+00
    nodepairs_(17,_23)  _C1496    -1.000000000000e+00
    nodepairs_(17,_23)  _C1497    -1.000000000000e+00
    nodepairs_(17,_23)  _C1498    -1.000000000000e+00
    MARK      'MARKER'                 'INTEND'
    MARK      'MARKER'                 'INTORG'
    nodepairs_(17,_3)  _C18       1.000000000000e+00
    nodepairs_(17,_3)  _C29       1.000000000000e+00
    nodepairs_(17,_3)  _C586     -1.000000000000e+00
    nodepairs_(17,_3)  _C587     -1.000000000000e+00
    nodepairs_(17,_3)  _C588     -1.000000000000e+00
    nodepairs_(17,_3)  _C900     -1.000000000000e+00
    nodepairs_(17,_3)  _C916     -1.000000000000e+00
    nodepairs_(17,_3)  _C917     -1.000000000000e+00
    nodepairs_(17,_3)  _C918     -1.000000000000e+00
    MARK      'MARKER'                 'INTEND'
    MARK      'MARKER'                 'INTORG'
    nodepairs_(17,_4)  _C18       1.000000000000e+00
    nodepairs_(17,_4)  _C30       1.000000000000e+00
    nodepairs_(17,_4)  _C587     -1.000000000000e+00
    nodepairs_(17,_4)  _C589     -1.000000000000e+00
    nodepairs_(17,_4)  _C929     -1.000000000000e+00
    nodepairs_(17,_4)  _C945     -1.000000000000e+00
    nodepairs_(17,_4)  _C946     -1.000000000000e+00
    nodepairs_(17,_4)  _C947     -1.000000000000e+00
    MARK      'MARKER'                 'INTEND'
    MARK      'MARKER'                 'INTORG'
    nodepairs_(17,_5)  _C18       1.000000000000e+00
    nodepairs_(17,_5)  _C31       1.000000000000e+00
    nodepairs_(17,_5)  _C589     -1.000000000000e+00
    nodepairs_(17,_5)  _C590     -1.000000000000e+00
    nodepairs_(17,_5)  _C591     -1.000000000000e+00
    nodepairs_(17,_5)  _C958     -1.000000000000e+00
    nodepairs_(17,_5)  _C974     -1.000000000000e+00
    nodepairs_(17,_5)  _C975     -1.000000000000e+00
    nodepairs_(17,_5)  _C976     -1.000000000000e+00
    MARK      'MARKER'                 'INTEND'
    MARK      'MARKER'                 'INTORG'
    nodepairs_(17,_6)  _C18       1.000000000000e+00
    nodepairs_(17,_6)  _C32       1.000000000000e+00
    nodepairs_(17,_6)  _C590     -1.000000000000e+00
    nodepairs_(17,_6)  _C592     -1.000000000000e+00
    nodepairs_(17,_6)  _C593     -1.000000000000e+00
    nodepairs_(17,_6)  _C987     -1.000000000000e+00
    nodepairs_(17,_6)  _C1003    -1.000000000000e+00
    nodepairs_(17,_6)  _C1004    -1.000000000000e+00
    nodepairs_(17,_6)  _C1005    -1.000000000000e+00
    MARK      'MARKER'                 'INTEND'
    MARK      'MARKER'                 'INTORG'
    nodepairs_(17,_7)  _C18       1.000000000000e+00
    nodepairs_(17,_7)  _C33       1.000000000000e+00
    nodepairs_(17,_7)  _C592     -1.000000000000e+00
    nodepairs_(17,_7)  _C594     -1.000000000000e+00
    nodepairs_(17,_7)  _C595     -1.000000000000e+00
    nodepairs_(17,_7)  _C1016    -1.000000000000e+00
    nodepairs_(17,_7)  _C1032    -1.000000000000e+00
    nodepairs_(17,_7)  _C1033    -1.000000000000e+00
    nodepairs_(17,_7)  _C1034    -1.000000000000e+00
    MARK      'MARKER'                 'INTEND'
    MARK      'MARKER'                 'INTORG'
    nodepairs_(17,_9)  _C18       1.000000000000e+00
    nodepairs_(17,_9)  _C35       1.000000000000e+00
    nodepairs_(17,_9)  _C588     -1.000000000000e+00
    nodepairs_(17,_9)  _C595     -1.000000000000e+00
    nodepairs_(17,_9)  _C596     -1.000000000000e+00
    nodepairs_(17,_9)  _C1074    -1.000000000000e+00
    nodepairs_(17,_9)  _C1090    -1.000000000000e+00
    nodepairs_(17,_9)  _C1091    -1.000000000000e+00
    nodepairs_(17,_9)  _C1092    -1.000000000000e+00
    MARK      'MARKER'                 'INTEND'
    MARK      'MARKER'                 'INTORG'
    nodepairs_(18,_10)  _C19       1.000000000000e+00
    nodepairs_(18,_10)  _C36       1.000000000000e+00
    nodepairs_(18,_10)  _C624     -1.000000000000e+00
    nodepairs_(18,_10)  _C1120    -1.000000000000e+00
    nodepairs_(18,_10)  _C1122    -1.000000000000e+00
    MARK      'MARKER'                 'INTEND'
    MARK      'MARKER'                 'INTORG'
    nodepairs_(18,_20)  _C19       1.000000000000e+00
    nodepairs_(18,_20)  _C46       1.000000000000e+00
    nodepairs_(18,_20)  _C635     -1.000000000000e+00
    nodepairs_(18,_20)  _C1410    -1.000000000000e+00
    nodepairs_(18,_20)  _C1412    -1.000000000000e+00
    MARK      'MARKER'                 'INTEND'
    MARK      'MARKER'                 'INTORG'
    nodepairs_(18,_22)  _C19       1.000000000000e+00
    nodepairs_(18,_22)  _C48       1.000000000000e+00
    nodepairs_(18,_22)  _C637     -1.000000000000e+00
    nodepairs_(18,_22)  _C638     -1.000000000000e+00
    nodepairs_(18,_22)  _C1468    -1.000000000000e+00
    nodepairs_(18,_22)  _C1470    -1.000000000000e+00
    MARK      'MARKER'                 'INTEND'
    MARK      'MARKER'                 'INTORG'
    nodepairs_(18,_24)  _C19       1.000000000000e+00
    nodepairs_(18,_24)  _C50       1.000000000000e+00
    nodepairs_(18,_24)  _C639     -1.000000000000e+00
    nodepairs_(18,_24)  _C1526    -1.000000000000e+00
    nodepairs_(18,_24)  _C1528    -1.000000000000e+00
    MARK      'MARKER'                 'INTEND'
    MARK      'MARKER'                 'INTORG'
    nodepairs_(18,_8)  _C19       1.000000000000e+00
    nodepairs_(18,_8)  _C34       1.000000000000e+00
    nodepairs_(18,_8)  _C622     -1.000000000000e+00
    nodepairs_(18,_8)  _C1062    -1.000000000000e+00
    nodepairs_(18,_8)  _C1064    -1.000000000000e+00
    MARK      'MARKER'                 'INTEND'
    MARK      'MARKER'                 'INTORG'
    nodepairs_(19,_0)  _C20       1.000000000000e+00
    nodepairs_(19,_0)  _C26       1.000000000000e+00
    nodepairs_(19,_0)  _C640     -1.000000000000e+00
    nodepairs_(19,_0)  _C810     -1.000000000000e+00
    nodepairs_(19,_0)  _C832     -1.000000000000e+00
    nodepairs_(19,_0)  _C833     -1.000000000000e+00
    MARK      'MARKER'                 'INTEND'
    MARK      'MARKER'                 'INTORG'
    nodepairs_(19,_1)  _C20       1.000000000000e+00
    nodepairs_(19,_1)  _C27       1.000000000000e+00
    nodepairs_(19,_1)  _C640     -1.000000000000e+00
    nodepairs_(19,_1)  _C641     -1.000000000000e+00
    nodepairs_(19,_1)  _C642     -1.000000000000e+00
    nodepairs_(19,_1)  _C839     -1.000000000000e+00
    nodepairs_(19,_1)  _C861     -1.000000000000e+00
    nodepairs_(19,_1)  _C862     -1.000000000000e+00
    MARK      'MARKER'                 'INTEND'
    MARK      'MARKER'                 'INTORG'
    nodepairs_(19,_11)  _C20       1.000000000000e+00
    nodepairs_(19,_11)  _C37       1.000000000000e+00
    nodepairs_(19,_11)  _C649     -1.000000000000e+00
    nodepairs_(19,_11)  _C653     -1.000000000000e+00
    nodepairs_(19,_11)  _C654     -1.000000000000e+00
    nodepairs_(19,_11)  _C655     -1.000000000000e+00
    nodepairs_(19,_11)  _C1129    -1.000000000000e+00
    nodepairs_(19,_11)  _C1151    -1.000000000000e+00
    nodepairs_(19,_11)  _C1152    -1.000000000000e+00
    MARK      'MARKER'                 'INTEND'
    MARK      'MARKER'                 'INTORG'
    nodepairs_(19,_12)  _C20       1.000000000000e+00
    nodepairs_(19,_12)  _C38       1.000000000000e+00
    nodepairs_(19,_12)  _C653     -1.000000000000e+00
    nodepairs_(19,_12)  _C656     -1.000000000000e+00
    nodepairs_(19,_12)  _C1158    -1.000000000000e+00
    nodepairs_(19,_12)  _C1180    -1.000000000000e+00
    nodepairs_(19,_12)  _C1181    -1.000000000000e+00
    MARK      'MARKER'                 'INTEND'
    MARK      'MARKER'                 'INTORG'
    nodepairs_(19,_13)  _C20       1.000000000000e+00
    nodepairs_(19,_13)  _C39       1.000000000000e+00
    nodepairs_(19,_13)  _C656     -1.000000000000e+00
    nodepairs_(19,_13)  _C657     -1.000000000000e+00
    nodepairs_(19,_13)  _C1187    -1.000000000000e+00
    nodepairs_(19,_13)  _C1209    -1.000000000000e+00
    nodepairs_(19,_13)  _C1210    -1.000000000000e+00
    MARK      'MARKER'                 'INTEND'
    MARK      'MARKER'                 'INTORG'
    nodepairs_(19,_14)  _C20       1.000000000000e+00
    nodepairs_(19,_14)  _C40       1.000000000000e+00
    nodepairs_(19,_14)  _C657     -1.000000000000e+00
    nodepairs_(19,_14)  _C658     -1.000000000000e+00
    nodepairs_(19,_14)  _C1216    -1.000000000000e+00
    nodepairs_(19,_14)  _C1238    -1.000000000000e+00
    nodepairs_(19,_14)  _C1239    -1.000000000000e+00
    MARK      'MARKER'                 'INTEND'
    MARK      'MARKER'                 'INTORG'
    nodepairs_(19,_15)  _C20       1.000000000000e+00
    nodepairs_(19,_15)  _C41       1.000000000000e+00
    nodepairs_(19,_15)  _C658     -1.000000000000e+00
    nodepairs_(19,_15)  _C659     -1.000000000000e+00
    nodepairs_(19,_15)  _C660     -1.000000000000e+00
    nodepairs_(19,_15)  _C661     -1.000000000000e+00
    nodepairs_(19,_15)  _C1245    -1.000000000000e+00
    nodepairs_(19,_15)  _C1267    -1.000000000000e+00
    nodepairs_(19,_15)  _C1268    -1.000000000000e+00
    MARK      'MARKER'                 'INTEND'
    MARK      'MARKER'                 'INTORG'
    nodepairs_(19,_16)  _C20       1.000000000000e+00
    nodepairs_(19,_16)  _C42       1.000000000000e+00
    nodepairs_(19,_16)  _C659     -1.000000000000e+00
    nodepairs_(19,_16)  _C1274    -1.000000000000e+00
    nodepairs_(19,_16)  _C1296    -1.000000000000e+00
    nodepairs_(19,_16)  _C1297    -1.000000000000e+00
    MARK      'MARKER'                 'INTEND'
    MARK      'MARKER'                 'INTORG'
    nodepairs_(19,_17)  _C20       1.000000000000e+00
    nodepairs_(19,_17)  _C43       1.000000000000e+00
    nodepairs_(19,_17)  _C660     -1.000000000000e+00
    nodepairs_(19,_17)  _C1303    -1.000000000000e+00
    nodepairs_(19,_17)  _C1325    -1.000000000000e+00
    nodepairs_(19,_17)  _C1326    -1.000000000000e+00
    MARK      'MARKER'                 'INTEND'
    MARK      'MARKER'                 'INTORG'
    nodepairs_(19,_18)  _C20       1.000000000000e+00
    nodepairs_(19,_18)  _C44       1.000000000000e+00
    nodepairs_(19,_18)  _C654     -1.000000000000e+00
    nodepairs_(19,_18)  _C661     -1.000000000000e+00
    nodepairs_(19,_18)  _C662     -1.000000000000e+00
    nodepairs_(19,_18)  _C1332    -1.000000000000e+00
    nodepairs_(19,_18)  _C1354    -1.000000000000e+00
    nodepairs_(19,_18)  _C1355    -1.000000000000e+00
    MARK      'MARKER'                 'INTEND'
    MARK      'MARKER'                 'INTORG'
    nodepairs_(19,_19)  _C20       1.000000000000e+00
    nodepairs_(19,_19)  _C45       1.000000000000e+00
    nodepairs_(19,_19)  _C662     -1.000000000000e+00
    nodepairs_(19,_19)  _C663     -1.000000000000e+00
    nodepairs_(19,_19)  _C664     -1.000000000000e+00
    nodepairs_(19,_19)  _C1361    -1.000000000000e+00
    nodepairs_(19,_19)  _C1383    -1.000000000000e+00
    nodepairs_(19,_19)  _C1384    -1.000000000000e+00
    MARK      'MARKER'                 'INTEND'
    MARK      'MARKER'                 'INTORG'
    nodepairs_(19,_2)  _C20       1.000000000000e+00
    nodepairs_(19,_2)  _C28       1.000000000000e+00
    nodepairs_(19,_2)  _C641     -1.000000000000e+00
    nodepairs_(19,_2)  _C868     -1.000000000000e+00
    nodepairs_(19,_2)  _C890     -1.000000000000e+00
    nodepairs_(19,_2)  _C891     -1.000000000000e+00
    MARK      'MARKER'                 'INTEND'
    MARK      'MARKER'                 'INTORG'
    nodepairs_(19,_21)  _C20       1.000000000000e+00
    nodepairs_(19,_21)  _C47       1.000000000000e+00
    nodepairs_(19,_21)  _C647     -1.000000000000e+00
    nodepairs_(19,_21)  _C664     -1.000000000000e+00
    nodepairs_(19,_21)  _C665     -1.000000000000e+00
    nodepairs_(19,_21)  _C1419    -1.000000000000e+00
    nodepairs_(19,_21)  _C1441    -1.000000000000e+00
    nodepairs_(19,_21)  _C1442    -1.000000000000e+00
    MARK      'MARKER'                 'INTEND'
    MARK      'MARKER'                 'INTORG'
    nodepairs_(19,_23)  _C20       1.000000000000e+00
    nodepairs_(19,_23)  _C49       1.000000000000e+00
    nodepairs_(19,_23)  _C655     -1.000000000000e+00
    nodepairs_(19,_23)  _C666     -1.000000000000e+00
    nodepairs_(19,_23)  _C667     -1.000000000000e+00
    nodepairs_(19,_23)  _C1477    -1.000000000000e+00
    nodepairs_(19,_23)  _C1499    -1.000000000000e+00
    nodepairs_(19,_23)  _C1500    -1.000000000000e+00
    MARK      'MARKER'                 'INTEND'
    MARK      'MARKER'                 'INTORG'
    nodepairs_(19,_3)  _C20       1.000000000000e+00
    nodepairs_(19,_3)  _C29       1.000000000000e+00
    nodepairs_(19,_3)  _C642     -1.000000000000e+00
    nodepairs_(19,_3)  _C643     -1.000000000000e+00
    nodepairs_(19,_3)  _C644     -1.000000000000e+00
    nodepairs_(19,_3)  _C897     -1.000000000000e+00
    nodepairs_(19,_3)  _C919     -1.000000000000e+00
    nodepairs_(19,_3)  _C920     -1.000000000000e+00
    MARK      'MARKER'                 'INTEND'
    MARK      'MARKER'                 'INTORG'
    nodepairs_(19,_4)  _C20       1.000000000000e+00
    nodepairs_(19,_4)  _C30       1.000000000000e+00
    nodepairs_(19,_4)  _C643     -1.000000000000e+00
    nodepairs_(19,_4)  _C645     -1.000000000000e+00
    nodepairs_(19,_4)  _C926     -1.000000000000e+00
    nodepairs_(19,_4)  _C948     -1.000000000000e+00
    nodepairs_(19,_4)  _C949     -1.000000000000e+00
    MARK      'MARKER'                 'INTEND'
    MARK      'MARKER'                 'INTORG'
    nodepairs_(19,_5)  _C20       1.000000000000e+00
    nodepairs_(19,_5)  _C31       1.000000000000e+00
    nodepairs_(19,_5)  _C645     -1.000000000000e+00
    nodepairs_(19,_5)  _C646     -1.000000000000e+00
    nodepairs_(19,_5)  _C647     -1.000000000000e+00
    nodepairs_(19,_5)  _C955     -1.000000000000e+00
    nodepairs_(19,_5)  _C977     -1.000000000000e+00
    nodepairs_(19,_5)  _C978     -1.000000000000e+00
    MARK      'MARKER'                 'INTEND'
    MARK      'MARKER'                 'INTORG'
    nodepairs_(19,_6)  _C20       1.000000000000e+00
    nodepairs_(19,_6)  _C32       1.000000000000e+00
    nodepairs_(19,_6)  _C646     -1.000000000000e+00
    nodepairs_(19,_6)  _C648     -1.000000000000e+00
    nodepairs_(19,_6)  _C649     -1.000000000000e+00
    nodepairs_(19,_6)  _C984     -1.000000000000e+00
    nodepairs_(19,_6)  _C1006    -1.000000000000e+00
    nodepairs_(19,_6)  _C1007    -1.000000000000e+00
    MARK      'MARKER'                 'INTEND'
    MARK      'MARKER'                 'INTORG'
    nodepairs_(19,_7)  _C20       1.000000000000e+00
    nodepairs_(19,_7)  _C33       1.000000000000e+00
    nodepairs_(19,_7)  _C648     -1.000000000000e+00
    nodepairs_(19,_7)  _C650     -1.000000000000e+00
    nodepairs_(19,_7)  _C651     -1.000000000000e+00
    nodepairs_(19,_7)  _C1013    -1.000000000000e+00
    nodepairs_(19,_7)  _C1035    -1.000000000000e+00
    nodepairs_(19,_7)  _C1036    -1.000000000000e+00
    MARK      'MARKER'                 'INTEND'
    MARK      'MARKER'                 'INTORG'
    nodepairs_(19,_9)  _C20       1.000000000000e+00
    nodepairs_(19,_9)  _C35       1.000000000000e+00
    nodepairs_(19,_9)  _C644     -1.000000000000e+00
    nodepairs_(19,_9)  _C651     -1.000000000000e+00
    nodepairs_(19,_9)  _C652     -1.000000000000e+00
    nodepairs_(19,_9)  _C1071    -1.000000000000e+00
    nodepairs_(19,_9)  _C1093    -1.000000000000e+00
    nodepairs_(19,_9)  _C1094    -1.000000000000e+00
    MARK      'MARKER'                 'INTEND'
    MARK      'MARKER'                 'INTORG'
    nodepairs_(2,_0)  _C3        1.000000000000e+00
    nodepairs_(2,_0)  _C26       1.000000000000e+00
    nodepairs_(2,_0)  _C164     -1.000000000000e+00
    nodepairs_(2,_0)  _C809     -1.000000000000e+00
    nodepairs_(2,_0)  _C812     -1.000000000000e+00
    nodepairs_(2,_0)  _C813     -1.000000000000e+00
    MARK      'MARKER'                 'INTEND'
    MARK      'MARKER'                 'INTORG'
    nodepairs_(2,_1)  _C3        1.000000000000e+00
    nodepairs_(2,_1)  _C27       1.000000000000e+00
    nodepairs_(2,_1)  _C164     -1.000000000000e+00
    nodepairs_(2,_1)  _C165     -1.000000000000e+00
    nodepairs_(2,_1)  _C166     -1.000000000000e+00
    nodepairs_(2,_1)  _C838     -1.000000000000e+00
    nodepairs_(2,_1)  _C841     -1.000000000000e+00
    nodepairs_(2,_1)  _C842     -1.000000000000e+00
    MARK      'MARKER'                 'INTEND'
    MARK      'MARKER'                 'INTORG'
    nodepairs_(2,_11)  _C3        1.000000000000e+00
    nodepairs_(2,_11)  _C37       1.000000000000e+00
    nodepairs_(2,_11)  _C173     -1.000000000000e+00
    nodepairs_(2,_11)  _C177     -1.000000000000e+00
    nodepairs_(2,_11)  _C178     -1.000000000000e+00
    nodepairs_(2,_11)  _C179     -1.000000000000e+00
    nodepairs_(2,_11)  _C1128    -1.000000000000e+00
    nodepairs_(2,_11)  _C1131    -1.000000000000e+00
    nodepairs_(2,_11)  _C1132    -1.000000000000e+00
    MARK      'MARKER'                 'INTEND'
    MARK      'MARKER'                 'INTORG'
    nodepairs_(2,_12)  _C3        1.000000000000e+00
    nodepairs_(2,_12)  _C38       1.000000000000e+00
    nodepairs_(2,_12)  _C177     -1.000000000000e+00
    nodepairs_(2,_12)  _C180     -1.000000000000e+00
    nodepairs_(2,_12)  _C1157    -1.000000000000e+00
    nodepairs_(2,_12)  _C1160    -1.000000000000e+00
    nodepairs_(2,_12)  _C1161    -1.000000000000e+00
    MARK      'MARKER'                 'INTEND'
    MARK      'MARKER'                 'INTORG'
    nodepairs_(2,_13)  _C3        1.000000000000e+00
    nodepairs_(2,_13)  _C39       1.000000000000e+00
    nodepairs_(2,_13)  _C180     -1.000000000000e+00
    nodepairs_(2,_13)  _C181     -1.000000000000e+00
    nodepairs_(2,_13)  _C1186    -1.000000000000e+00
    nodepairs_(2,_13)  _C1189    -1.000000000000e+00
    nodepairs_(2,_13)  _C1190    -1.000000000000e+00
    MARK      'MARKER'                 'INTEND'
    MARK      'MARKER'                 'INTORG'
    nodepairs_(2,_14)  _C3        1.000000000000e+00
    nodepairs_(2,_14)  _C40       1.000000000000e+00
    nodepairs_(2,_14)  _C181     -1.000000000000e+00
    nodepairs_(2,_14)  _C182     -1.000000000000e+00
    nodepairs_(2,_14)  _C1215    -1.000000000000e+00
    nodepairs_(2,_14)  _C1218    -1.000000000000e+00
    nodepairs_(2,_14)  _C1219    -1.000000000000e+00
    MARK      'MARKER'                 'INTEND'
    MARK      'MARKER'                 'INTORG'
    nodepairs_(2,_15)  _C3        1.000000000000e+00
    nodepairs_(2,_15)  _C41       1.000000000000e+00
    nodepairs_(2,_15)  _C182     -1.000000000000e+00
    nodepairs_(2,_15)  _C183     -1.000000000000e+00
    nodepairs_(2,_15)  _C184     -1.000000000000e+00
    nodepairs_(2,_15)  _C185     -1.000000000000e+00
    nodepairs_(2,_15)  _C1244    -1.000000000000e+00
    nodepairs_(2,_15)  _C1247    -1.000000000000e+00
    nodepairs_(2,_15)  _C1248    -1.000000000000e+00
    MARK      'MARKER'                 'INTEND'
    MARK      'MARKER'                 'INTORG'
    nodepairs_(2,_16)  _C3        1.000000000000e+00
    nodepairs_(2,_16)  _C42       1.000000000000e+00
    nodepairs_(2,_16)  _C183     -1.000000000000e+00
    nodepairs_(2,_16)  _C1273    -1.000000000000e+00
    nodepairs_(2,_16)  _C1276    -1.000000000000e+00
    nodepairs_(2,_16)  _C1277    -1.000000000000e+00
    MARK      'MARKER'                 'INTEND'
    MARK      'MARKER'                 'INTORG'
    nodepairs_(2,_17)  _C3        1.000000000000e+00
    nodepairs_(2,_17)  _C43       1.000000000000e+00
    nodepairs_(2,_17)  _C184     -1.000000000000e+00
    nodepairs_(2,_17)  _C1302    -1.000000000000e+00
    nodepairs_(2,_17)  _C1305    -1.000000000000e+00
    nodepairs_(2,_17)  _C1306    -1.000000000000e+00
    MARK      'MARKER'                 'INTEND'
    MARK      'MARKER'                 'INTORG'
    nodepairs_(2,_18)  _C3        1.000000000000e+00
    nodepairs_(2,_18)  _C44       1.000000000000e+00
    nodepairs_(2,_18)  _C178     -1.000000000000e+00
    nodepairs_(2,_18)  _C185     -1.000000000000e+00
    nodepairs_(2,_18)  _C186     -1.000000000000e+00
    nodepairs_(2,_18)  _C1331    -1.000000000000e+00
    nodepairs_(2,_18)  _C1334    -1.000000000000e+00
    nodepairs_(2,_18)  _C1335    -1.000000000000e+00
    MARK      'MARKER'                 'INTEND'
    MARK      'MARKER'                 'INTORG'
    nodepairs_(2,_19)  _C3        1.000000000000e+00
    nodepairs_(2,_19)  _C45       1.000000000000e+00
    nodepairs_(2,_19)  _C186     -1.000000000000e+00
    nodepairs_(2,_19)  _C187     -1.000000000000e+00
    nodepairs_(2,_19)  _C188     -1.000000000000e+00
    nodepairs_(2,_19)  _C1360    -1.000000000000e+00
    nodepairs_(2,_19)  _C1363    -1.000000000000e+00
    nodepairs_(2,_19)  _C1364    -1.000000000000e+00
    MARK      'MARKER'                 'INTEND'
    MARK      'MARKER'                 'INTORG'
    nodepairs_(2,_2)  _C3        1.000000000000e+00
    nodepairs_(2,_2)  _C28       1.000000000000e+00
    nodepairs_(2,_2)  _C165     -1.000000000000e+00
    nodepairs_(2,_2)  _C867     -1.000000000000e+00
    nodepairs_(2,_2)  _C870     -1.000000000000e+00
    nodepairs_(2,_2)  _C871     -1.000000000000e+00
    MARK      'MARKER'                 'INTEND'
    MARK      'MARKER'                 'INTORG'
    nodepairs_(2,_21)  _C3        1.000000000000e+00
    nodepairs_(2,_21)  _C47       1.000000000000e+00
    nodepairs_(2,_21)  _C171     -1.000000000000e+00
    nodepairs_(2,_21)  _C188     -1.000000000000e+00
    nodepairs_(2,_21)  _C189     -1.000000000000e+00
    nodepairs_(2,_21)  _C1418    -1.000000000000e+00
    nodepairs_(2,_21)  _C1421    -1.000000000000e+00
    nodepairs_(2,_21)  _C1422    -1.000000000000e+00
    MARK      'MARKER'                 'INTEND'
    MARK      'MARKER'                 'INTORG'
    nodepairs_(2,_23)  _C3        1.000000000000e+00
    nodepairs_(2,_23)  _C49       1.000000000000e+00
    nodepairs_(2,_23)  _C179     -1.000000000000e+00
    nodepairs_(2,_23)  _C190     -1.000000000000e+00
    nodepairs_(2,_23)  _C191     -1.000000000000e+00
    nodepairs_(2,_23)  _C1476    -1.000000000000e+00
    nodepairs_(2,_23)  _C1479    -1.000000000000e+00
    nodepairs_(2,_23)  _C1480    -1.000000000000e+00
    MARK      'MARKER'                 'INTEND'
    MARK      'MARKER'                 'INTORG'
    nodepairs_(2,_3)  _C3        1.000000000000e+00
    nodepairs_(2,_3)  _C29       1.000000000000e+00
    nodepairs_(2,_3)  _C166     -1.000000000000e+00
    nodepairs_(2,_3)  _C167     -1.000000000000e+00
    nodepairs_(2,_3)  _C168     -1.000000000000e+00
    nodepairs_(2,_3)  _C896     -1.000000000000e+00
    nodepairs_(2,_3)  _C899     -1.000000000000e+00
    nodepairs_(2,_3)  _C900     -1.000000000000e+00
    MARK      'MARKER'                 'INTEND'
    MARK      'MARKER'                 'INTORG'
    nodepairs_(2,_4)  _C3        1.000000000000e+00
    nodepairs_(2,_4)  _C30       1.000000000000e+00
    nodepairs_(2,_4)  _C167     -1.000000000000e+00
    nodepairs_(2,_4)  _C169     -1.000000000000e+00
    nodepairs_(2,_4)  _C925     -1.000000000000e+00
    nodepairs_(2,_4)  _C928     -1.000000000000e+00
    nodepairs_(2,_4)  _C929     -1.000000000000e+00
    MARK      'MARKER'                 'INTEND'
    MARK      'MARKER'                 'INTORG'
    nodepairs_(2,_5)  _C3        1.000000000000e+00
    nodepairs_(2,_5)  _C31       1.000000000000e+00
    nodepairs_(2,_5)  _C169     -1.000000000000e+00
    nodepairs_(2,_5)  _C170     -1.000000000000e+00
    nodepairs_(2,_5)  _C171     -1.000000000000e+00
    nodepairs_(2,_5)  _C954     -1.000000000000e+00
    nodepairs_(2,_5)  _C957     -1.000000000000e+00
    nodepairs_(2,_5)  _C958     -1.000000000000e+00
    MARK      'MARKER'                 'INTEND'
    MARK      'MARKER'                 'INTORG'
    nodepairs_(2,_6)  _C3        1.000000000000e+00
    nodepairs_(2,_6)  _C32       1.000000000000e+00
    nodepairs_(2,_6)  _C170     -1.000000000000e+00
    nodepairs_(2,_6)  _C172     -1.000000000000e+00
    nodepairs_(2,_6)  _C173     -1.000000000000e+00
    nodepairs_(2,_6)  _C983     -1.000000000000e+00
    nodepairs_(2,_6)  _C986     -1.000000000000e+00
    nodepairs_(2,_6)  _C987     -1.000000000000e+00
    MARK      'MARKER'                 'INTEND'
    MARK      'MARKER'                 'INTORG'
    nodepairs_(2,_7)  _C3        1.000000000000e+00
    nodepairs_(2,_7)  _C33       1.000000000000e+00
    nodepairs_(2,_7)  _C172     -1.000000000000e+00
    nodepairs_(2,_7)  _C174     -1.000000000000e+00
    nodepairs_(2,_7)  _C175     -1.000000000000e+00
    nodepairs_(2,_7)  _C1012    -1.000000000000e+00
    nodepairs_(2,_7)  _C1015    -1.000000000000e+00
    nodepairs_(2,_7)  _C1016    -1.000000000000e+00
    MARK      'MARKER'                 'INTEND'
    MARK      'MARKER'                 'INTORG'
    nodepairs_(2,_9)  _C3        1.000000000000e+00
    nodepairs_(2,_9)  _C35       1.000000000000e+00
    nodepairs_(2,_9)  _C168     -1.000000000000e+00
    nodepairs_(2,_9)  _C175     -1.000000000000e+00
    nodepairs_(2,_9)  _C176     -1.000000000000e+00
    nodepairs_(2,_9)  _C1070    -1.000000000000e+00
    nodepairs_(2,_9)  _C1073    -1.000000000000e+00
    nodepairs_(2,_9)  _C1074    -1.000000000000e+00
    MARK      'MARKER'                 'INTEND'
    MARK      'MARKER'                 'INTORG'
    nodepairs_(20,_10)  _C21       1.000000000000e+00
    nodepairs_(20,_10)  _C36       1.000000000000e+00
    nodepairs_(20,_10)  _C680     -1.000000000000e+00
    nodepairs_(20,_10)  _C1123    -1.000000000000e+00
    MARK      'MARKER'                 'INTEND'
    MARK      'MARKER'                 'INTORG'
    nodepairs_(20,_20)  _C21       1.000000000000e+00
    nodepairs_(20,_20)  _C46       1.000000000000e+00
    nodepairs_(20,_20)  _C691     -1.000000000000e+00
    nodepairs_(20,_20)  _C1413    -1.000000000000e+00
    MARK      'MARKER'                 'INTEND'
    MARK      'MARKER'                 'INTORG'
    nodepairs_(20,_22)  _C21       1.000000000000e+00
    nodepairs_(20,_22)  _C48       1.000000000000e+00
    nodepairs_(20,_22)  _C693     -1.000000000000e+00
    nodepairs_(20,_22)  _C694     -1.000000000000e+00
    nodepairs_(20,_22)  _C1471    -1.000000000000e+00
    MARK      'MARKER'                 'INTEND'
    MARK      'MARKER'                 'INTORG'
    nodepairs_(20,_24)  _C21       1.000000000000e+00
    nodepairs_(20,_24)  _C50       1.000000000000e+00
    nodepairs_(20,_24)  _C695     -1.000000000000e+00
    nodepairs_(20,_24)  _C1529    -1.000000000000e+00
    MARK      'MARKER'                 'INTEND'
    MARK      'MARKER'                 'INTORG'
    nodepairs_(20,_8)  _C21       1.000000000000e+00
    nodepairs_(20,_8)  _C34       1.000000000000e+00
    nodepairs_(20,_8)  _C678     -1.000000000000e+00
    nodepairs_(20,_8)  _C1065    -1.000000000000e+00
    MARK      'MARKER'                 'INTEND'
    MARK      'MARKER'                 'INTORG'
    nodepairs_(21,_0)  _C22       1.000000000000e+00
    nodepairs_(21,_0)  _C26       1.000000000000e+00
    nodepairs_(21,_0)  _C696     -1.000000000000e+00
    nodepairs_(21,_0)  _C831     -1.000000000000e+00
    nodepairs_(21,_0)  _C834     -1.000000000000e+00
    MARK      'MARKER'                 'INTEND'
    MARK      'MARKER'                 'INTORG'
    nodepairs_(21,_1)  _C22       1.000000000000e+00
    nodepairs_(21,_1)  _C27       1.000000000000e+00
    nodepairs_(21,_1)  _C696     -1.000000000000e+00
    nodepairs_(21,_1)  _C697     -1.000000000000e+00
    nodepairs_(21,_1)  _C698     -1.000000000000e+00
    nodepairs_(21,_1)  _C860     -1.000000000000e+00
    nodepairs_(21,_1)  _C863     -1.000000000000e+00
    MARK      'MARKER'                 'INTEND'
    MARK      'MARKER'                 'INTORG'
    nodepairs_(21,_11)  _C22       1.000000000000e+00
    nodepairs_(21,_11)  _C37       1.000000000000e+00
    nodepairs_(21,_11)  _C705     -1.000000000000e+00
    nodepairs_(21,_11)  _C709     -1.000000000000e+00
    nodepairs_(21,_11)  _C710     -1.000000000000e+00
    nodepairs_(21,_11)  _C711     -1.000000000000e+00
    nodepairs_(21,_11)  _C1150    -1.000000000000e+00
    nodepairs_(21,_11)  _C1153    -1.000000000000e+00
    MARK      'MARKER'                 'INTEND'
    MARK      'MARKER'                 'INTORG'
    nodepairs_(21,_12)  _C22       1.000000000000e+00
    nodepairs_(21,_12)  _C38       1.000000000000e+00
    nodepairs_(21,_12)  _C709     -1.000000000000e+00
    nodepairs_(21,_12)  _C712     -1.000000000000e+00
    nodepairs_(21,_12)  _C1179    -1.000000000000e+00
    nodepairs_(21,_12)  _C1182    -1.000000000000e+00
    MARK      'MARKER'                 'INTEND'
    MARK      'MARKER'                 'INTORG'
    nodepairs_(21,_13)  _C22       1.000000000000e+00
    nodepairs_(21,_13)  _C39       1.000000000000e+00
    nodepairs_(21,_13)  _C712     -1.000000000000e+00
    nodepairs_(21,_13)  _C713     -1.000000000000e+00
    nodepairs_(21,_13)  _C1208    -1.000000000000e+00
    nodepairs_(21,_13)  _C1211    -1.000000000000e+00
    MARK      'MARKER'                 'INTEND'
    MARK      'MARKER'                 'INTORG'
    nodepairs_(21,_14)  _C22       1.000000000000e+00
    nodepairs_(21,_14)  _C40       1.000000000000e+00
    nodepairs_(21,_14)  _C713     -1.000000000000e+00
    nodepairs_(21,_14)  _C714     -1.000000000000e+00
    nodepairs_(21,_14)  _C1237    -1.000000000000e+00
    nodepairs_(21,_14)  _C1240    -1.000000000000e+00
    MARK      'MARKER'                 'INTEND'
    MARK      'MARKER'                 'INTORG'
    nodepairs_(21,_15)  _C22       1.000000000000e+00
    nodepairs_(21,_15)  _C41       1.000000000000e+00
    nodepairs_(21,_15)  _C714     -1.000000000000e+00
    nodepairs_(21,_15)  _C715     -1.000000000000e+00
    nodepairs_(21,_15)  _C716     -1.000000000000e+00
    nodepairs_(21,_15)  _C717     -1.000000000000e+00
    nodepairs_(21,_15)  _C1266    -1.000000000000e+00
    nodepairs_(21,_15)  _C1269    -1.000000000000e+00
    MARK      'MARKER'                 'INTEND'
    MARK      'MARKER'                 'INTORG'
    nodepairs_(21,_16)  _C22       1.000000000000e+00
    nodepairs_(21,_16)  _C42       1.000000000000e+00
    nodepairs_(21,_16)  _C715     -1.000000000000e+00
    nodepairs_(21,_16)  _C1295    -1.000000000000e+00
    nodepairs_(21,_16)  _C1298    -1.000000000000e+00
    MARK      'MARKER'                 'INTEND'
    MARK      'MARKER'                 'INTORG'
    nodepairs_(21,_17)  _C22       1.000000000000e+00
    nodepairs_(21,_17)  _C43       1.000000000000e+00
    nodepairs_(21,_17)  _C716     -1.000000000000e+00
    nodepairs_(21,_17)  _C1324    -1.000000000000e+00
    nodepairs_(21,_17)  _C1327    -1.000000000000e+00
    MARK      'MARKER'                 'INTEND'
    MARK      'MARKER'                 'INTORG'
    nodepairs_(21,_18)  _C22       1.000000000000e+00
    nodepairs_(21,_18)  _C44       1.000000000000e+00
    nodepairs_(21,_18)  _C710     -1.000000000000e+00
    nodepairs_(21,_18)  _C717     -1.000000000000e+00
    nodepairs_(21,_18)  _C718     -1.000000000000e+00
    nodepairs_(21,_18)  _C1353    -1.000000000000e+00
    nodepairs_(21,_18)  _C1356    -1.000000000000e+00
    MARK      'MARKER'                 'INTEND'
    MARK      'MARKER'                 'INTORG'
    nodepairs_(21,_19)  _C22       1.000000000000e+00
    nodepairs_(21,_19)  _C45       1.000000000000e+00
    nodepairs_(21,_19)  _C718     -1.000000000000e+00
    nodepairs_(21,_19)  _C719     -1.000000000000e+00
    nodepairs_(21,_19)  _C720     -1.000000000000e+00
    nodepairs_(21,_19)  _C1382    -1.000000000000e+00
    nodepairs_(21,_19)  _C1385    -1.000000000000e+00
    MARK      'MARKER'                 'INTEND'
    MARK      'MARKER'                 'INTORG'
    nodepairs_(21,_2)  _C22       1.000000000000e+00
    nodepairs_(21,_2)  _C28       1.000000000000e+00
    nodepairs_(21,_2)  _C697     -1.000000000000e+00
    nodepairs_(21,_2)  _C889     -1.000000000000e+00
    nodepairs_(21,_2)  _C892     -1.000000000000e+00
    MARK      'MARKER'                 'INTEND'
    MARK      'MARKER'                 'INTORG'
    nodepairs_(21,_21)  _C22       1.000000000000e+00
    nodepairs_(21,_21)  _C47       1.000000000000e+00
    nodepairs_(21,_21)  _C703     -1.000000000000e+00
    nodepairs_(21,_21)  _C720     -1.000000000000e+00
    nodepairs_(21,_21)  _C721     -1.000000000000e+00
    nodepairs_(21,_21)  _C1440    -1.000000000000e+00
    nodepairs_(21,_21)  _C1443    -1.000000000000e+00
    MARK      'MARKER'                 'INTEND'
    MARK      'MARKER'                 'INTORG'
    nodepairs_(21,_23)  _C22       1.000000000000e+00
    nodepairs_(21,_23)  _C49       1.000000000000e+00
    nodepairs_(21,_23)  _C711     -1.000000000000e+00
    nodepairs_(21,_23)  _C722     -1.000000000000e+00
    nodepairs_(21,_23)  _C723     -1.000000000000e+00
    nodepairs_(21,_23)  _C1498    -1.000000000000e+00
    nodepairs_(21,_23)  _C1501    -1.000000000000e+00
    MARK      'MARKER'                 'INTEND'
    MARK      'MARKER'                 'INTORG'
    nodepairs_(21,_3)  _C22       1.000000000000e+00
    nodepairs_(21,_3)  _C29       1.000000000000e+00
    nodepairs_(21,_3)  _C698     -1.000000000000e+00
    nodepairs_(21,_3)  _C699     -1.000000000000e+00
    nodepairs_(21,_3)  _C700     -1.000000000000e+00
    nodepairs_(21,_3)  _C918     -1.000000000000e+00
    nodepairs_(21,_3)  _C921     -1.000000000000e+00
    MARK      'MARKER'                 'INTEND'
    MARK      'MARKER'                 'INTORG'
    nodepairs_(21,_4)  _C22       1.000000000000e+00
    nodepairs_(21,_4)  _C30       1.000000000000e+00
    nodepairs_(21,_4)  _C699     -1.000000000000e+00
    nodepairs_(21,_4)  _C701     -1.000000000000e+00
    nodepairs_(21,_4)  _C947     -1.000000000000e+00
    nodepairs_(21,_4)  _C950     -1.000000000000e+00
    MARK      'MARKER'                 'INTEND'
    MARK      'MARKER'                 'INTORG'
    nodepairs_(21,_5)  _C22       1.000000000000e+00
    nodepairs_(21,_5)  _C31       1.000000000000e+00
    nodepairs_(21,_5)  _C701     -1.000000000000e+00
    nodepairs_(21,_5)  _C702     -1.000000000000e+00
    nodepairs_(21,_5)  _C703     -1.000000000000e+00
    nodepairs_(21,_5)  _C976     -1.000000000000e+00
    nodepairs_(21,_5)  _C979     -1.000000000000e+00
    MARK      'MARKER'                 'INTEND'
    MARK      'MARKER'                 'INTORG'
    nodepairs_(21,_6)  _C22       1.000000000000e+00
    nodepairs_(21,_6)  _C32       1.000000000000e+00
    nodepairs_(21,_6)  _C702     -1.000000000000e+00
    nodepairs_(21,_6)  _C704     -1.000000000000e+00
    nodepairs_(21,_6)  _C705     -1.000000000000e+00
    nodepairs_(21,_6)  _C1005    -1.000000000000e+00
    nodepairs_(21,_6)  _C1008    -1.000000000000e+00
    MARK      'MARKER'                 'INTEND'
    MARK      'MARKER'                 'INTORG'
    nodepairs_(21,_7)  _C22       1.000000000000e+00
    nodepairs_(21,_7)  _C33       1.000000000000e+00
    nodepairs_(21,_7)  _C704     -1.000000000000e+00
    nodepairs_(21,_7)  _C706     -1.000000000000e+00
    nodepairs_(21,_7)  _C707     -1.000000000000e+00
    nodepairs_(21,_7)  _C1034    -1.000000000000e+00
    nodepairs_(21,_7)  _C1037    -1.000000000000e+00
    MARK      'MARKER'                 'INTEND'
    MARK      'MARKER'                 'INTORG'
    nodepairs_(21,_9)  _C22       1.000000000000e+00
    nodepairs_(21,_9)  _C35       1.000000000000e+00
    nodepairs_(21,_9)  _C700     -1.000000000000e+00
    nodepairs_(21,_9)  _C707     -1.000000000000e+00
    nodepairs_(21,_9)  _C708     -1.000000000000e+00
    nodepairs_(21,_9)  _C1092    -1.000000000000e+00
    nodepairs_(21,_9)  _C1095    -1.000000000000e+00
    MARK      'MARKER'                 'INTEND'
    MARK      'MARKER'                 'INTORG'
    nodepairs_(22,_0)  _C23       1.000000000000e+00
    nodepairs_(22,_0)  _C26       1.000000000000e+00
    nodepairs_(22,_0)  _C724     -1.000000000000e+00
    nodepairs_(22,_0)  _C834     -1.000000000000e+00
    nodepairs_(22,_0)  _C835     -1.000000000000e+00
    MARK      'MARKER'                 'INTEND'
    MARK      'MARKER'                 'INTORG'
    nodepairs_(22,_1)  _C23       1.000000000000e+00
    nodepairs_(22,_1)  _C27       1.000000000000e+00
    nodepairs_(22,_1)  _C724     -1.000000000000e+00
    nodepairs_(22,_1)  _C725     -1.000000000000e+00
    nodepairs_(22,_1)  _C726     -1.000000000000e+00
    nodepairs_(22,_1)  _C863     -1.000000000000e+00
    nodepairs_(22,_1)  _C864     -1.000000000000e+00
    MARK      'MARKER'                 'INTEND'
    MARK      'MARKER'                 'INTORG'
    nodepairs_(22,_11)  _C23       1.000000000000e+00
    nodepairs_(22,_11)  _C37       1.000000000000e+00
    nodepairs_(22,_11)  _C733     -1.000000000000e+00
    nodepairs_(22,_11)  _C737     -1.000000000000e+00
    nodepairs_(22,_11)  _C738     -1.000000000000e+00
    nodepairs_(22,_11)  _C739     -1.000000000000e+00
    nodepairs_(22,_11)  _C1153    -1.000000000000e+00
    nodepairs_(22,_11)  _C1154    -1.000000000000e+00
    MARK      'MARKER'                 'INTEND'
    MARK      'MARKER'                 'INTORG'
    nodepairs_(22,_12)  _C23       1.000000000000e+00
    nodepairs_(22,_12)  _C38       1.000000000000e+00
    nodepairs_(22,_12)  _C737     -1.000000000000e+00
    nodepairs_(22,_12)  _C740     -1.000000000000e+00
    nodepairs_(22,_12)  _C1182    -1.000000000000e+00
    nodepairs_(22,_12)  _C1183    -1.000000000000e+00
    MARK      'MARKER'                 'INTEND'
    MARK      'MARKER'                 'INTORG'
    nodepairs_(22,_13)  _C23       1.000000000000e+00
    nodepairs_(22,_13)  _C39       1.000000000000e+00
    nodepairs_(22,_13)  _C740     -1.000000000000e+00
    nodepairs_(22,_13)  _C741     -1.000000000000e+00
    nodepairs_(22,_13)  _C1211    -1.000000000000e+00
    nodepairs_(22,_13)  _C1212    -1.000000000000e+00
    MARK      'MARKER'                 'INTEND'
    MARK      'MARKER'                 'INTORG'
    nodepairs_(22,_14)  _C23       1.000000000000e+00
    nodepairs_(22,_14)  _C40       1.000000000000e+00
    nodepairs_(22,_14)  _C741     -1.000000000000e+00
    nodepairs_(22,_14)  _C742     -1.000000000000e+00
    nodepairs_(22,_14)  _C1240    -1.000000000000e+00
    nodepairs_(22,_14)  _C1241    -1.000000000000e+00
    MARK      'MARKER'                 'INTEND'
    MARK      'MARKER'                 'INTORG'
    nodepairs_(22,_15)  _C23       1.000000000000e+00
    nodepairs_(22,_15)  _C41       1.000000000000e+00
    nodepairs_(22,_15)  _C742     -1.000000000000e+00
    nodepairs_(22,_15)  _C743     -1.000000000000e+00
    nodepairs_(22,_15)  _C744     -1.000000000000e+00
    nodepairs_(22,_15)  _C745     -1.000000000000e+00
    nodepairs_(22,_15)  _C1269    -1.000000000000e+00
    nodepairs_(22,_15)  _C1270    -1.000000000000e+00
    MARK      'MARKER'                 'INTEND'
    MARK      'MARKER'                 'INTORG'
    nodepairs_(22,_16)  _C23       1.000000000000e+00
    nodepairs_(22,_16)  _C42       1.000000000000e+00
    nodepairs_(22,_16)  _C743     -1.000000000000e+00
    nodepairs_(22,_16)  _C1298    -1.000000000000e+00
    nodepairs_(22,_16)  _C1299    -1.000000000000e+00
    MARK      'MARKER'                 'INTEND'
    MARK      'MARKER'                 'INTORG'
    nodepairs_(22,_17)  _C23       1.000000000000e+00
    nodepairs_(22,_17)  _C43       1.000000000000e+00
    nodepairs_(22,_17)  _C744     -1.000000000000e+00
    nodepairs_(22,_17)  _C1327    -1.000000000000e+00
    nodepairs_(22,_17)  _C1328    -1.000000000000e+00
    MARK      'MARKER'                 'INTEND'
    MARK      'MARKER'                 'INTORG'
    nodepairs_(22,_18)  _C23       1.000000000000e+00
    nodepairs_(22,_18)  _C44       1.000000000000e+00
    nodepairs_(22,_18)  _C738     -1.000000000000e+00
    nodepairs_(22,_18)  _C745     -1.000000000000e+00
    nodepairs_(22,_18)  _C746     -1.000000000000e+00
    nodepairs_(22,_18)  _C1356    -1.000000000000e+00
    nodepairs_(22,_18)  _C1357    -1.000000000000e+00
    MARK      'MARKER'                 'INTEND'
    MARK      'MARKER'                 'INTORG'
    nodepairs_(22,_19)  _C23       1.000000000000e+00
    nodepairs_(22,_19)  _C45       1.000000000000e+00
    nodepairs_(22,_19)  _C746     -1.000000000000e+00
    nodepairs_(22,_19)  _C747     -1.000000000000e+00
    nodepairs_(22,_19)  _C748     -1.000000000000e+00
    nodepairs_(22,_19)  _C1385    -1.000000000000e+00
    nodepairs_(22,_19)  _C1386    -1.000000000000e+00
    MARK      'MARKER'                 'INTEND'
    MARK      'MARKER'                 'INTORG'
    nodepairs_(22,_2)  _C23       1.000000000000e+00
    nodepairs_(22,_2)  _C28       1.000000000000e+00
    nodepairs_(22,_2)  _C725     -1.000000000000e+00
    nodepairs_(22,_2)  _C892     -1.000000000000e+00
    nodepairs_(22,_2)  _C893     -1.000000000000e+00
    MARK      'MARKER'                 'INTEND'
    MARK      'MARKER'                 'INTORG'
    nodepairs_(22,_21)  _C23       1.000000000000e+00
    nodepairs_(22,_21)  _C47       1.000000000000e+00
    nodepairs_(22,_21)  _C731     -1.000000000000e+00
    nodepairs_(22,_21)  _C748     -1.000000000000e+00
    nodepairs_(22,_21)  _C749     -1.000000000000e+00
    nodepairs_(22,_21)  _C1443    -1.000000000000e+00
    nodepairs_(22,_21)  _C1444    -1.000000000000e+00
    MARK      'MARKER'                 'INTEND'
    MARK      'MARKER'                 'INTORG'
    nodepairs_(22,_23)  _C23       1.000000000000e+00
    nodepairs_(22,_23)  _C49       1.000000000000e+00
    nodepairs_(22,_23)  _C739     -1.000000000000e+00
    nodepairs_(22,_23)  _C750     -1.000000000000e+00
    nodepairs_(22,_23)  _C751     -1.000000000000e+00
    nodepairs_(22,_23)  _C1501    -1.000000000000e+00
    nodepairs_(22,_23)  _C1502    -1.000000000000e+00
    MARK      'MARKER'                 'INTEND'
    MARK      'MARKER'                 'INTORG'
    nodepairs_(22,_3)  _C23       1.000000000000e+00
    nodepairs_(22,_3)  _C29       1.000000000000e+00
    nodepairs_(22,_3)  _C726     -1.000000000000e+00
    nodepairs_(22,_3)  _C727     -1.000000000000e+00
    nodepairs_(22,_3)  _C728     -1.000000000000e+00
    nodepairs_(22,_3)  _C921     -1.000000000000e+00
    nodepairs_(22,_3)  _C922     -1.000000000000e+00
    MARK      'MARKER'                 'INTEND'
    MARK      'MARKER'                 'INTORG'
    nodepairs_(22,_4)  _C23       1.000000000000e+00
    nodepairs_(22,_4)  _C30       1.000000000000e+00
    nodepairs_(22,_4)  _C727     -1.000000000000e+00
    nodepairs_(22,_4)  _C729     -1.000000000000e+00
    nodepairs_(22,_4)  _C950     -1.000000000000e+00
    nodepairs_(22,_4)  _C951     -1.000000000000e+00
    MARK      'MARKER'                 'INTEND'
    MARK      'MARKER'                 'INTORG'
    nodepairs_(22,_5)  _C23       1.000000000000e+00
    nodepairs_(22,_5)  _C31       1.000000000000e+00
    nodepairs_(22,_5)  _C729     -1.000000000000e+00
    nodepairs_(22,_5)  _C730     -1.000000000000e+00
    nodepairs_(22,_5)  _C731     -1.000000000000e+00
    nodepairs_(22,_5)  _C979     -1.000000000000e+00
    nodepairs_(22,_5)  _C980     -1.000000000000e+00
    MARK      'MARKER'                 'INTEND'
    MARK      'MARKER'                 'INTORG'
    nodepairs_(22,_6)  _C23       1.000000000000e+00
    nodepairs_(22,_6)  _C32       1.000000000000e+00
    nodepairs_(22,_6)  _C730     -1.000000000000e+00
    nodepairs_(22,_6)  _C732     -1.000000000000e+00
    nodepairs_(22,_6)  _C733     -1.000000000000e+00
    nodepairs_(22,_6)  _C1008    -1.000000000000e+00
    nodepairs_(22,_6)  _C1009    -1.000000000000e+00
    MARK      'MARKER'                 'INTEND'
    MARK      'MARKER'                 'INTORG'
    nodepairs_(22,_7)  _C23       1.000000000000e+00
    nodepairs_(22,_7)  _C33       1.000000000000e+00
    nodepairs_(22,_7)  _C732     -1.000000000000e+00
    nodepairs_(22,_7)  _C734     -1.000000000000e+00
    nodepairs_(22,_7)  _C735     -1.000000000000e+00
    nodepairs_(22,_7)  _C1037    -1.000000000000e+00
    nodepairs_(22,_7)  _C1038    -1.000000000000e+00
    MARK      'MARKER'                 'INTEND'
    MARK      'MARKER'                 'INTORG'
    nodepairs_(22,_9)  _C23       1.000000000000e+00
    nodepairs_(22,_9)  _C35       1.000000000000e+00
    nodepairs_(22,_9)  _C728     -1.000000000000e+00
    nodepairs_(22,_9)  _C735     -1.000000000000e+00
    nodepairs_(22,_9)  _C736     -1.000000000000e+00
    nodepairs_(22,_9)  _C1095    -1.000000000000e+00
    nodepairs_(22,_9)  _C1096    -1.000000000000e+00
    MARK      'MARKER'                 'INTEND'
    MARK      'MARKER'                 'INTORG'
    nodepairs_(23,_0)  _C24       1.000000000000e+00
    nodepairs_(23,_0)  _C26       1.000000000000e+00
    nodepairs_(23,_0)  _C752     -1.000000000000e+00
    nodepairs_(23,_0)  _C811     -1.000000000000e+00
    nodepairs_(23,_0)  _C835     -1.000000000000e+00
    nodepairs_(23,_0)  _C836     -1.000000000000e+00
    MARK      'MARKER'                 'INTEND'
    MARK      'MARKER'                 'INTORG'
    nodepairs_(23,_1)  _C24       1.000000000000e+00
    nodepairs_(23,_1)  _C27       1.000000000000e+00
    nodepairs_(23,_1)  _C752     -1.000000000000e+00
    nodepairs_(23,_1)  _C753     -1.000000000000e+00
    nodepairs_(23,_1)  _C754     -1.000000000000e+00
    nodepairs_(23,_1)  _C840     -1.000000000000e+00
    nodepairs_(23,_1)  _C864     -1.000000000000e+00
    nodepairs_(23,_1)  _C865     -1.000000000000e+00
    MARK      'MARKER'                 'INTEND'
    MARK      'MARKER'                 'INTORG'
    nodepairs_(23,_11)  _C24       1.000000000000e+00
    nodepairs_(23,_11)  _C37       1.000000000000e+00
    nodepairs_(23,_11)  _C761     -1.000000000000e+00
    nodepairs_(23,_11)  _C765     -1.000000000000e+00
    nodepairs_(23,_11)  _C766     -1.000000000000e+00
    nodepairs_(23,_11)  _C767     -1.000000000000e+00
    nodepairs_(23,_11)  _C1130    -1.000000000000e+00
    nodepairs_(23,_11)  _C1154    -1.000000000000e+00
    nodepairs_(23,_11)  _C1155    -1.000000000000e+00
    MARK      'MARKER'                 'INTEND'
    MARK      'MARKER'                 'INTORG'
    nodepairs_(23,_12)  _C24       1.000000000000e+00
    nodepairs_(23,_12)  _C38       1.000000000000e+00
    nodepairs_(23,_12)  _C765     -1.000000000000e+00
    nodepairs_(23,_12)  _C768     -1.000000000000e+00
    nodepairs_(23,_12)  _C1159    -1.000000000000e+00
    nodepairs_(23,_12)  _C1183    -1.000000000000e+00
    nodepairs_(23,_12)  _C1184    -1.000000000000e+00
    MARK      'MARKER'                 'INTEND'
    MARK      'MARKER'                 'INTORG'
    nodepairs_(23,_13)  _C24       1.000000000000e+00
    nodepairs_(23,_13)  _C39       1.000000000000e+00
    nodepairs_(23,_13)  _C768     -1.000000000000e+00
    nodepairs_(23,_13)  _C769     -1.000000000000e+00
    nodepairs_(23,_13)  _C1188    -1.000000000000e+00
    nodepairs_(23,_13)  _C1212    -1.000000000000e+00
    nodepairs_(23,_13)  _C1213    -1.000000000000e+00
    MARK      'MARKER'                 'INTEND'
    MARK      'MARKER'                 'INTORG'
    nodepairs_(23,_14)  _C24       1.000000000000e+00
    nodepairs_(23,_14)  _C40       1.000000000000e+00
    nodepairs_(23,_14)  _C769     -1.000000000000e+00
    nodepairs_(23,_14)  _C770     -1.000000000000e+00
    nodepairs_(23,_14)  _C1217    -1.000000000000e+00
    nodepairs_(23,_14)  _C1241    -1.000000000000e+00
    nodepairs_(23,_14)  _C1242    -1.000000000000e+00
    MARK      'MARKER'                 'INTEND'
    MARK      'MARKER'                 'INTORG'
    nodepairs_(23,_15)  _C24       1.000000000000e+00
    nodepairs_(23,_15)  _C41       1.000000000000e+00
    nodepairs_(23,_15)  _C770     -1.000000000000e+00
    nodepairs_(23,_15)  _C771     -1.000000000000e+00
    nodepairs_(23,_15)  _C772     -1.000000000000e+00
    nodepairs_(23,_15)  _C773     -1.000000000000e+00
    nodepairs_(23,_15)  _C1246    -1.000000000000e+00
    nodepairs_(23,_15)  _C1270    -1.000000000000e+00
    nodepairs_(23,_15)  _C1271    -1.000000000000e+00
    MARK      'MARKER'                 'INTEND'
    MARK      'MARKER'                 'INTORG'
    nodepairs_(23,_16)  _C24       1.000000000000e+00
    nodepairs_(23,_16)  _C42       1.000000000000e+00
    nodepairs_(23,_16)  _C771     -1.000000000000e+00
    nodepairs_(23,_16)  _C1275    -1.000000000000e+00
    nodepairs_(23,_16)  _C1299    -1.000000000000e+00
    nodepairs_(23,_16)  _C1300    -1.000000000000e+00
    MARK      'MARKER'                 'INTEND'
    MARK      'MARKER'                 'INTORG'
    nodepairs_(23,_17)  _C24       1.000000000000e+00
    nodepairs_(23,_17)  _C43       1.000000000000e+00
    nodepairs_(23,_17)  _C772     -1.000000000000e+00
    nodepairs_(23,_17)  _C1304    -1.000000000000e+00
    nodepairs_(23,_17)  _C1328    -1.000000000000e+00
    nodepairs_(23,_17)  _C1329    -1.000000000000e+00
    MARK      'MARKER'                 'INTEND'
    MARK      'MARKER'                 'INTORG'
    nodepairs_(23,_18)  _C24       1.000000000000e+00
    nodepairs_(23,_18)  _C44       1.000000000000e+00
    nodepairs_(23,_18)  _C766     -1.000000000000e+00
    nodepairs_(23,_18)  _C773     -1.000000000000e+00
    nodepairs_(23,_18)  _C774     -1.000000000000e+00
    nodepairs_(23,_18)  _C1333    -1.000000000000e+00
    nodepairs_(23,_18)  _C1357    -1.000000000000e+00
    nodepairs_(23,_18)  _C1358    -1.000000000000e+00
    MARK      'MARKER'                 'INTEND'
    MARK      'MARKER'                 'INTORG'
    nodepairs_(23,_19)  _C24       1.000000000000e+00
    nodepairs_(23,_19)  _C45       1.000000000000e+00
    nodepairs_(23,_19)  _C774     -1.000000000000e+00
    nodepairs_(23,_19)  _C775     -1.000000000000e+00
    nodepairs_(23,_19)  _C776     -1.000000000000e+00
    nodepairs_(23,_19)  _C1362    -1.000000000000e+00
    nodepairs_(23,_19)  _C1386    -1.000000000000e+00
    nodepairs_(23,_19)  _C1387    -1.000000000000e+00
    MARK      'MARKER'                 'INTEND'
    MARK      'MARKER'                 'INTORG'
    nodepairs_(23,_2)  _C24       1.000000000000e+00
    nodepairs_(23,_2)  _C28       1.000000000000e+00
    nodepairs_(23,_2)  _C753     -1.000000000000e+00
    nodepairs_(23,_2)  _C869     -1.000000000000e+00
    nodepairs_(23,_2)  _C893     -1.000000000000e+00
    nodepairs_(23,_2)  _C894     -1.000000000000e+00
    MARK      'MARKER'                 'INTEND'
    MARK      'MARKER'                 'INTORG'
    nodepairs_(23,_21)  _C24       1.000000000000e+00
    nodepairs_(23,_21)  _C47       1.000000000000e+00
    nodepairs_(23,_21)  _C759     -1.000000000000e+00
    nodepairs_(23,_21)  _C776     -1.000000000000e+00
    nodepairs_(23,_21)  _C777     -1.000000000000e+00
    nodepairs_(23,_21)  _C1420    -1.000000000000e+00
    nodepairs_(23,_21)  _C1444    -1.000000000000e+00
    nodepairs_(23,_21)  _C1445    -1.000000000000e+00
    MARK      'MARKER'                 'INTEND'
    MARK      'MARKER'                 'INTORG'
    nodepairs_(23,_23)  _C24       1.000000000000e+00
    nodepairs_(23,_23)  _C49       1.000000000000e+00
    nodepairs_(23,_23)  _C767     -1.000000000000e+00
    nodepairs_(23,_23)  _C778     -1.000000000000e+00
    nodepairs_(23,_23)  _C779     -1.000000000000e+00
    nodepairs_(23,_23)  _C1478    -1.000000000000e+00
    nodepairs_(23,_23)  _C1502    -1.000000000000e+00
    nodepairs_(23,_23)  _C1503    -1.000000000000e+00
    MARK      'MARKER'                 'INTEND'
    MARK      'MARKER'                 'INTORG'
    nodepairs_(23,_3)  _C24       1.000000000000e+00
    nodepairs_(23,_3)  _C29       1.000000000000e+00
    nodepairs_(23,_3)  _C754     -1.000000000000e+00
    nodepairs_(23,_3)  _C755     -1.000000000000e+00
    nodepairs_(23,_3)  _C756     -1.000000000000e+00
    nodepairs_(23,_3)  _C898     -1.000000000000e+00
    nodepairs_(23,_3)  _C922     -1.000000000000e+00
    nodepairs_(23,_3)  _C923     -1.000000000000e+00
    MARK      'MARKER'                 'INTEND'
    MARK      'MARKER'                 'INTORG'
    nodepairs_(23,_4)  _C24       1.000000000000e+00
    nodepairs_(23,_4)  _C30       1.000000000000e+00
    nodepairs_(23,_4)  _C755     -1.000000000000e+00
    nodepairs_(23,_4)  _C757     -1.000000000000e+00
    nodepairs_(23,_4)  _C927     -1.000000000000e+00
    nodepairs_(23,_4)  _C951     -1.000000000000e+00
    nodepairs_(23,_4)  _C952     -1.000000000000e+00
    MARK      'MARKER'                 'INTEND'
    MARK      'MARKER'                 'INTORG'
    nodepairs_(23,_5)  _C24       1.000000000000e+00
    nodepairs_(23,_5)  _C31       1.000000000000e+00
    nodepairs_(23,_5)  _C757     -1.000000000000e+00
    nodepairs_(23,_5)  _C758     -1.000000000000e+00
    nodepairs_(23,_5)  _C759     -1.000000000000e+00
    nodepairs_(23,_5)  _C956     -1.000000000000e+00
    nodepairs_(23,_5)  _C980     -1.000000000000e+00
    nodepairs_(23,_5)  _C981     -1.000000000000e+00
    MARK      'MARKER'                 'INTEND'
    MARK      'MARKER'                 'INTORG'
    nodepairs_(23,_6)  _C24       1.000000000000e+00
    nodepairs_(23,_6)  _C32       1.000000000000e+00
    nodepairs_(23,_6)  _C758     -1.000000000000e+00
    nodepairs_(23,_6)  _C760     -1.000000000000e+00
    nodepairs_(23,_6)  _C761     -1.000000000000e+00
    nodepairs_(23,_6)  _C985     -1.000000000000e+00
    nodepairs_(23,_6)  _C1009    -1.000000000000e+00
    nodepairs_(23,_6)  _C1010    -1.000000000000e+00
    MARK      'MARKER'                 'INTEND'
    MARK      'MARKER'                 'INTORG'
    nodepairs_(23,_7)  _C24       1.000000000000e+00
    nodepairs_(23,_7)  _C33       1.000000000000e+00
    nodepairs_(23,_7)  _C760     -1.000000000000e+00
    nodepairs_(23,_7)  _C762     -1.000000000000e+00
    nodepairs_(23,_7)  _C763     -1.000000000000e+00
    nodepairs_(23,_7)  _C1014    -1.000000000000e+00
    nodepairs_(23,_7)  _C1038    -1.000000000000e+00
    nodepairs_(23,_7)  _C1039    -1.000000000000e+00
    MARK      'MARKER'                 'INTEND'
    MARK      'MARKER'                 'INTORG'
    nodepairs_(23,_9)  _C24       1.000000000000e+00
    nodepairs_(23,_9)  _C35       1.000000000000e+00
    nodepairs_(23,_9)  _C756     -1.000000000000e+00
    nodepairs_(23,_9)  _C763     -1.000000000000e+00
    nodepairs_(23,_9)  _C764     -1.000000000000e+00
    nodepairs_(23,_9)  _C1072    -1.000000000000e+00
    nodepairs_(23,_9)  _C1096    -1.000000000000e+00
    nodepairs_(23,_9)  _C1097    -1.000000000000e+00
    MARK      'MARKER'                 'INTEND'
    MARK      'MARKER'                 'INTORG'
    nodepairs_(24,_10)  _C25       1.000000000000e+00
    nodepairs_(24,_10)  _C36       1.000000000000e+00
    nodepairs_(24,_10)  _C792     -1.000000000000e+00
    nodepairs_(24,_10)  _C1126    -1.000000000000e+00
    MARK      'MARKER'                 'INTEND'
    MARK      'MARKER'                 'INTORG'
    nodepairs_(24,_20)  _C25       1.000000000000e+00
    nodepairs_(24,_20)  _C46       1.000000000000e+00
    nodepairs_(24,_20)  _C803     -1.000000000000e+00
    nodepairs_(24,_20)  _C1416    -1.000000000000e+00
    MARK      'MARKER'                 'INTEND'
    MARK      'MARKER'                 'INTORG'
    nodepairs_(24,_22)  _C25       1.000000000000e+00
    nodepairs_(24,_22)  _C48       1.000000000000e+00
    nodepairs_(24,_22)  _C805     -1.000000000000e+00
    nodepairs_(24,_22)  _C806     -1.000000000000e+00
    nodepairs_(24,_22)  _C1474    -1.000000000000e+00
    MARK      'MARKER'                 'INTEND'
    MARK      'MARKER'                 'INTORG'
    nodepairs_(24,_24)  _C25       1.000000000000e+00
    nodepairs_(24,_24)  _C50       1.000000000000e+00
    nodepairs_(24,_24)  _C807     -1.000000000000e+00
    nodepairs_(24,_24)  _C1532    -1.000000000000e+00
    MARK      'MARKER'                 'INTEND'
    MARK      'MARKER'                 'INTORG'
    nodepairs_(24,_8)  _C25       1.000000000000e+00
    nodepairs_(24,_8)  _C34       1.000000000000e+00
    nodepairs_(24,_8)  _C790     -1.000000000000e+00
    nodepairs_(24,_8)  _C1068    -1.000000000000e+00
    MARK      'MARKER'                 'INTEND'
    MARK      'MARKER'                 'INTORG'
    nodepairs_(3,_0)  _C4        1.000000000000e+00
    nodepairs_(3,_0)  _C26       1.000000000000e+00
    nodepairs_(3,_0)  _C192     -1.000000000000e+00
    nodepairs_(3,_0)  _C812     -1.000000000000e+00
    nodepairs_(3,_0)  _C814     -1.000000000000e+00
    nodepairs_(3,_0)  _C815     -1.000000000000e+00
    MARK      'MARKER'                 'INTEND'
    MARK      'MARKER'                 'INTORG'
    nodepairs_(3,_1)  _C4        1.000000000000e+00
    nodepairs_(3,_1)  _C27       1.000000000000e+00
    nodepairs_(3,_1)  _C192     -1.000000000000e+00
    nodepairs_(3,_1)  _C193     -1.000000000000e+00
    nodepairs_(3,_1)  _C194     -1.000000000000e+00
    nodepairs_(3,_1)  _C841     -1.000000000000e+00
    nodepairs_(3,_1)  _C843     -1.000000000000e+00
    nodepairs_(3,_1)  _C844     -1.000000000000e+00
    MARK      'MARKER'                 'INTEND'
    MARK      'MARKER'                 'INTORG'
    nodepairs_(3,_11)  _C4        1.000000000000e+00
    nodepairs_(3,_11)  _C37       1.000000000000e+00
    nodepairs_(3,_11)  _C201     -1.000000000000e+00
    nodepairs_(3,_11)  _C205     -1.000000000000e+00
    nodepairs_(3,_11)  _C206     -1.000000000000e+00
    nodepairs_(3,_11)  _C207     -1.000000000000e+00
    nodepairs_(3,_11)  _C1131    -1.000000000000e+00
    nodepairs_(3,_11)  _C1133    -1.000000000000e+00
    nodepairs_(3,_11)  _C1134    -1.000000000000e+00
    MARK      'MARKER'                 'INTEND'
    MARK      'MARKER'                 'INTORG'
    nodepairs_(3,_12)  _C4        1.000000000000e+00
    nodepairs_(3,_12)  _C38       1.000000000000e+00
    nodepairs_(3,_12)  _C205     -1.000000000000e+00
    nodepairs_(3,_12)  _C208     -1.000000000000e+00
    nodepairs_(3,_12)  _C1160    -1.000000000000e+00
    nodepairs_(3,_12)  _C1162    -1.000000000000e+00
    nodepairs_(3,_12)  _C1163    -1.000000000000e+00
    MARK      'MARKER'                 'INTEND'
    MARK      'MARKER'                 'INTORG'
    nodepairs_(3,_13)  _C4        1.000000000000e+00
    nodepairs_(3,_13)  _C39       1.000000000000e+00
    nodepairs_(3,_13)  _C208     -1.000000000000e+00
    nodepairs_(3,_13)  _C209     -1.000000000000e+00
    nodepairs_(3,_13)  _C1189    -1.000000000000e+00
    nodepairs_(3,_13)  _C1191    -1.000000000000e+00
    nodepairs_(3,_13)  _C1192    -1.000000000000e+00
    MARK      'MARKER'                 'INTEND'
    MARK      'MARKER'                 'INTORG'
    nodepairs_(3,_14)  _C4        1.000000000000e+00
    nodepairs_(3,_14)  _C40       1.000000000000e+00
    nodepairs_(3,_14)  _C209     -1.000000000000e+00
    nodepairs_(3,_14)  _C210     -1.000000000000e+00
    nodepairs_(3,_14)  _C1218    -1.000000000000e+00
    nodepairs_(3,_14)  _C1220    -1.000000000000e+00
    nodepairs_(3,_14)  _C1221    -1.000000000000e+00
    MARK      'MARKER'                 'INTEND'
    MARK      'MARKER'                 'INTORG'
    nodepairs_(3,_15)  _C4        1.000000000000e+00
    nodepairs_(3,_15)  _C41       1.000000000000e+00
    nodepairs_(3,_15)  _C210     -1.000000000000e+00
    nodepairs_(3,_15)  _C211     -1.000000000000e+00
    nodepairs_(3,_15)  _C212     -1.000000000000e+00
    nodepairs_(3,_15)  _C213     -1.000000000000e+00
    nodepairs_(3,_15)  _C1247    -1.000000000000e+00
    nodepairs_(3,_15)  _C1249    -1.000000000000e+00
    nodepairs_(3,_15)  _C1250    -1.000000000000e+00
    MARK      'MARKER'                 'INTEND'
    MARK      'MARKER'                 'INTORG'
    nodepairs_(3,_16)  _C4        1.000000000000e+00
    nodepairs_(3,_16)  _C42       1.000000000000e+00
    nodepairs_(3,_16)  _C211     -1.000000000000e+00
    nodepairs_(3,_16)  _C1276    -1.000000000000e+00
    nodepairs_(3,_16)  _C1278    -1.000000000000e+00
    nodepairs_(3,_16)  _C1279    -1.000000000000e+00
    MARK      'MARKER'                 'INTEND'
    MARK      'MARKER'                 'INTORG'
    nodepairs_(3,_17)  _C4        1.000000000000e+00
    nodepairs_(3,_17)  _C43       1.000000000000e+00
    nodepairs_(3,_17)  _C212     -1.000000000000e+00
    nodepairs_(3,_17)  _C1305    -1.000000000000e+00
    nodepairs_(3,_17)  _C1307    -1.000000000000e+00
    nodepairs_(3,_17)  _C1308    -1.000000000000e+00
    MARK      'MARKER'                 'INTEND'
    MARK      'MARKER'                 'INTORG'
    nodepairs_(3,_18)  _C4        1.000000000000e+00
    nodepairs_(3,_18)  _C44       1.000000000000e+00
    nodepairs_(3,_18)  _C206     -1.000000000000e+00
    nodepairs_(3,_18)  _C213     -1.000000000000e+00
    nodepairs_(3,_18)  _C214     -1.000000000000e+00
    nodepairs_(3,_18)  _C1334    -1.000000000000e+00
    nodepairs_(3,_18)  _C1336    -1.000000000000e+00
    nodepairs_(3,_18)  _C1337    -1.000000000000e+00
    MARK      'MARKER'                 'INTEND'
    MARK      'MARKER'                 'INTORG'
    nodepairs_(3,_19)  _C4        1.000000000000e+00
    nodepairs_(3,_19)  _C45       1.000000000000e+00
    nodepairs_(3,_19)  _C214     -1.000000000000e+00
    nodepairs_(3,_19)  _C215     -1.000000000000e+00
    nodepairs_(3,_19)  _C216     -1.000000000000e+00
    nodepairs_(3,_19)  _C1363    -1.000000000000e+00
    nodepairs_(3,_19)  _C1365    -1.000000000000e+00
    nodepairs_(3,_19)  _C1366    -1.000000000000e+00
    MARK      'MARKER'                 'INTEND'
    MARK      'MARKER'                 'INTORG'
    nodepairs_(3,_2)  _C4        1.000000000000e+00
    nodepairs_(3,_2)  _C28       1.000000000000e+00
    nodepairs_(3,_2)  _C193     -1.000000000000e+00
    nodepairs_(3,_2)  _C870     -1.000000000000e+00
    nodepairs_(3,_2)  _C872     -1.000000000000e+00
    nodepairs_(3,_2)  _C873     -1.000000000000e+00
    MARK      'MARKER'                 'INTEND'
    MARK      'MARKER'                 'INTORG'
    nodepairs_(3,_21)  _C4        1.000000000000e+00
    nodepairs_(3,_21)  _C47       1.000000000000e+00
    nodepairs_(3,_21)  _C199     -1.000000000000e+00
    nodepairs_(3,_21)  _C216     -1.000000000000e+00
    nodepairs_(3,_21)  _C217     -1.000000000000e+00
    nodepairs_(3,_21)  _C1421    -1.000000000000e+00
    nodepairs_(3,_21)  _C1423    -1.000000000000e+00
    nodepairs_(3,_21)  _C1424    -1.000000000000e+00
    MARK      'MARKER'                 'INTEND'
    MARK      'MARKER'                 'INTORG'
    nodepairs_(3,_23)  _C4        1.000000000000e+00
    nodepairs_(3,_23)  _C49       1.000000000000e+00
    nodepairs_(3,_23)  _C207     -1.000000000000e+00
    nodepairs_(3,_23)  _C218     -1.000000000000e+00
    nodepairs_(3,_23)  _C219     -1.000000000000e+00
    nodepairs_(3,_23)  _C1479    -1.000000000000e+00
    nodepairs_(3,_23)  _C1481    -1.000000000000e+00
    nodepairs_(3,_23)  _C1482    -1.000000000000e+00
    MARK      'MARKER'                 'INTEND'
    MARK      'MARKER'                 'INTORG'
    nodepairs_(3,_3)  _C4        1.000000000000e+00
    nodepairs_(3,_3)  _C29       1.000000000000e+00
    nodepairs_(3,_3)  _C194     -1.000000000000e+00
    nodepairs_(3,_3)  _C195     -1.000000000000e+00
    nodepairs_(3,_3)  _C196     -1.000000000000e+00
    nodepairs_(3,_3)  _C899     -1.000000000000e+00
    nodepairs_(3,_3)  _C901     -1.000000000000e+00
    nodepairs_(3,_3)  _C902     -1.000000000000e+00
    MARK      'MARKER'                 'INTEND'
    MARK      'MARKER'                 'INTORG'
    nodepairs_(3,_4)  _C4        1.000000000000e+00
    nodepairs_(3,_4)  _C30       1.000000000000e+00
    nodepairs_(3,_4)  _C195     -1.000000000000e+00
    nodepairs_(3,_4)  _C197     -1.000000000000e+00
    nodepairs_(3,_4)  _C928     -1.000000000000e+00
    nodepairs_(3,_4)  _C930     -1.000000000000e+00
    nodepairs_(3,_4)  _C931     -1.000000000000e+00
    MARK      'MARKER'                 'INTEND'
    MARK      'MARKER'                 'INTORG'
    nodepairs_(3,_5)  _C4        1.000000000000e+00
    nodepairs_(3,_5)  _C31       1.000000000000e+00
    nodepairs_(3,_5)  _C197     -1.000000000000e+00
    nodepairs_(3,_5)  _C198     -1.000000000000e+00
    nodepairs_(3,_5)  _C199     -1.000000000000e+00
    nodepairs_(3,_5)  _C957     -1.000000000000e+00
    nodepairs_(3,_5)  _C959     -1.000000000000e+00
    nodepairs_(3,_5)  _C960     -1.000000000000e+00
    MARK      'MARKER'                 'INTEND'
    MARK      'MARKER'                 'INTORG'
    nodepairs_(3,_6)  _C4        1.000000000000e+00
    nodepairs_(3,_6)  _C32       1.000000000000e+00
    nodepairs_(3,_6)  _C198     -1.000000000000e+00
    nodepairs_(3,_6)  _C200     -1.000000000000e+00
    nodepairs_(3,_6)  _C201     -1.000000000000e+00
    nodepairs_(3,_6)  _C986     -1.000000000000e+00
    nodepairs_(3,_6)  _C988     -1.000000000000e+00
    nodepairs_(3,_6)  _C989     -1.000000000000e+00
    MARK      'MARKER'                 'INTEND'
    MARK      'MARKER'                 'INTORG'
    nodepairs_(3,_7)  _C4        1.000000000000e+00
    nodepairs_(3,_7)  _C33       1.000000000000e+00
    nodepairs_(3,_7)  _C200     -1.000000000000e+00
    nodepairs_(3,_7)  _C202     -1.000000000000e+00
    nodepairs_(3,_7)  _C203     -1.000000000000e+00
    nodepairs_(3,_7)  _C1015    -1.000000000000e+00
    nodepairs_(3,_7)  _C1017    -1.000000000000e+00
    nodepairs_(3,_7)  _C1018    -1.000000000000e+00
    MARK      'MARKER'                 'INTEND'
    MARK      'MARKER'                 'INTORG'
    nodepairs_(3,_9)  _C4        1.000000000000e+00
    nodepairs_(3,_9)  _C35       1.000000000000e+00
    nodepairs_(3,_9)  _C196     -1.000000000000e+00
    nodepairs_(3,_9)  _C203     -1.000000000000e+00
    nodepairs_(3,_9)  _C204     -1.000000000000e+00
    nodepairs_(3,_9)  _C1073    -1.000000000000e+00
    nodepairs_(3,_9)  _C1075    -1.000000000000e+00
    nodepairs_(3,_9)  _C1076    -1.000000000000e+00
    MARK      'MARKER'                 'INTEND'
    MARK      'MARKER'                 'INTORG'
    nodepairs_(4,_0)  _C5        1.000000000000e+00
    nodepairs_(4,_0)  _C26       1.000000000000e+00
    nodepairs_(4,_0)  _C220     -1.000000000000e+00
    nodepairs_(4,_0)  _C814     -1.000000000000e+00
    nodepairs_(4,_0)  _C816     -1.000000000000e+00
    nodepairs_(4,_0)  _C817     -1.000000000000e+00
    MARK      'MARKER'                 'INTEND'
    MARK      'MARKER'                 'INTORG'
    nodepairs_(4,_1)  _C5        1.000000000000e+00
    nodepairs_(4,_1)  _C27       1.000000000000e+00
    nodepairs_(4,_1)  _C220     -1.000000000000e+00
    nodepairs_(4,_1)  _C221     -1.000000000000e+00
    nodepairs_(4,_1)  _C222     -1.000000000000e+00
    nodepairs_(4,_1)  _C843     -1.000000000000e+00
    nodepairs_(4,_1)  _C845     -1.000000000000e+00
    nodepairs_(4,_1)  _C846     -1.000000000000e+00
    MARK      'MARKER'                 'INTEND'
    MARK      'MARKER'                 'INTORG'
    nodepairs_(4,_11)  _C5        1.000000000000e+00
    nodepairs_(4,_11)  _C37       1.000000000000e+00
    nodepairs_(4,_11)  _C229     -1.000000000000e+00
    nodepairs_(4,_11)  _C233     -1.000000000000e+00
    nodepairs_(4,_11)  _C234     -1.000000000000e+00
    nodepairs_(4,_11)  _C235     -1.000000000000e+00
    nodepairs_(4,_11)  _C1133    -1.000000000000e+00
    nodepairs_(4,_11)  _C1135    -1.000000000000e+00
    nodepairs_(4,_11)  _C1136    -1.000000000000e+00
    MARK      'MARKER'                 'INTEND'
    MARK      'MARKER'                 'INTORG'
    nodepairs_(4,_12)  _C5        1.000000000000e+00
    nodepairs_(4,_12)  _C38       1.000000000000e+00
    nodepairs_(4,_12)  _C233     -1.000000000000e+00
    nodepairs_(4,_12)  _C236     -1.000000000000e+00
    nodepairs_(4,_12)  _C1162    -1.000000000000e+00
    nodepairs_(4,_12)  _C1164    -1.000000000000e+00
    nodepairs_(4,_12)  _C1165    -1.000000000000e+00
    MARK      'MARKER'                 'INTEND'
    MARK      'MARKER'                 'INTORG'
    nodepairs_(4,_13)  _C5        1.000000000000e+00
    nodepairs_(4,_13)  _C39       1.000000000000e+00
    nodepairs_(4,_13)  _C236     -1.000000000000e+00
    nodepairs_(4,_13)  _C237     -1.000000000000e+00
    nodepairs_(4,_13)  _C1191    -1.000000000000e+00
    nodepairs_(4,_13)  _C1193    -1.000000000000e+00
    nodepairs_(4,_13)  _C1194    -1.000000000000e+00
    MARK      'MARKER'                 'INTEND'
    MARK      'MARKER'                 'INTORG'
    nodepairs_(4,_14)  _C5        1.000000000000e+00
    nodepairs_(4,_14)  _C40       1.000000000000e+00
    nodepairs_(4,_14)  _C237     -1.000000000000e+00
    nodepairs_(4,_14)  _C238     -1.000000000000e+00
    nodepairs_(4,_14)  _C1220    -1.000000000000e+00
    nodepairs_(4,_14)  _C1222    -1.000000000000e+00
    nodepairs_(4,_14)  _C1223    -1.000000000000e+00
    MARK      'MARKER'                 'INTEND'
    MARK      'MARKER'                 'INTORG'
    nodepairs_(4,_15)  _C5        1.000000000000e+00
    nodepairs_(4,_15)  _C41       1.000000000000e+00
    nodepairs_(4,_15)  _C238     -1.000000000000e+00
    nodepairs_(4,_15)  _C239     -1.000000000000e+00
    nodepairs_(4,_15)  _C240     -1.000000000000e+00
    nodepairs_(4,_15)  _C241     -1.000000000000e+00
    nodepairs_(4,_15)  _C1249    -1.000000000000e+00
    nodepairs_(4,_15)  _C1251    -1.000000000000e+00
    nodepairs_(4,_15)  _C1252    -1.000000000000e+00
    MARK      'MARKER'                 'INTEND'
    MARK      'MARKER'                 'INTORG'
    nodepairs_(4,_16)  _C5        1.000000000000e+00
    nodepairs_(4,_16)  _C42       1.000000000000e+00
    nodepairs_(4,_16)  _C239     -1.000000000000e+00
    nodepairs_(4,_16)  _C1278    -1.000000000000e+00
    nodepairs_(4,_16)  _C1280    -1.000000000000e+00
    nodepairs_(4,_16)  _C1281    -1.000000000000e+00
    MARK      'MARKER'                 'INTEND'
    MARK      'MARKER'                 'INTORG'
    nodepairs_(4,_17)  _C5        1.000000000000e+00
    nodepairs_(4,_17)  _C43       1.000000000000e+00
    nodepairs_(4,_17)  _C240     -1.000000000000e+00
    nodepairs_(4,_17)  _C1307    -1.000000000000e+00
    nodepairs_(4,_17)  _C1309    -1.000000000000e+00
    nodepairs_(4,_17)  _C1310    -1.000000000000e+00
    MARK      'MARKER'                 'INTEND'
    MARK      'MARKER'                 'INTORG'
    nodepairs_(4,_18)  _C5        1.000000000000e+00
    nodepairs_(4,_18)  _C44       1.000000000000e+00
    nodepairs_(4,_18)  _C234     -1.000000000000e+00
    nodepairs_(4,_18)  _C241     -1.000000000000e+00
    nodepairs_(4,_18)  _C242     -1.000000000000e+00
    nodepairs_(4,_18)  _C1336    -1.000000000000e+00
    nodepairs_(4,_18)  _C1338    -1.000000000000e+00
    nodepairs_(4,_18)  _C1339    -1.000000000000e+00
    MARK      'MARKER'                 'INTEND'
    MARK      'MARKER'                 'INTORG'
    nodepairs_(4,_19)  _C5        1.000000000000e+00
    nodepairs_(4,_19)  _C45       1.000000000000e+00
    nodepairs_(4,_19)  _C242     -1.000000000000e+00
    nodepairs_(4,_19)  _C243     -1.000000000000e+00
    nodepairs_(4,_19)  _C244     -1.000000000000e+00
    nodepairs_(4,_19)  _C1365    -1.000000000000e+00
    nodepairs_(4,_19)  _C1367    -1.000000000000e+00
    nodepairs_(4,_19)  _C1368    -1.000000000000e+00
    MARK      'MARKER'                 'INTEND'
    MARK      'MARKER'                 'INTORG'
    nodepairs_(4,_2)  _C5        1.000000000000e+00
    nodepairs_(4,_2)  _C28       1.000000000000e+00
    nodepairs_(4,_2)  _C221     -1.000000000000e+00
    nodepairs_(4,_2)  _C872     -1.000000000000e+00
    nodepairs_(4,_2)  _C874     -1.000000000000e+00
    nodepairs_(4,_2)  _C875     -1.000000000000e+00
    MARK      'MARKER'                 'INTEND'
    MARK      'MARKER'                 'INTORG'
    nodepairs_(4,_21)  _C5        1.000000000000e+00
    nodepairs_(4,_21)  _C47       1.000000000000e+00
    nodepairs_(4,_21)  _C227     -1.000000000000e+00
    nodepairs_(4,_21)  _C244     -1.000000000000e+00
    nodepairs_(4,_21)  _C245     -1.000000000000e+00
    nodepairs_(4,_21)  _C1423    -1.000000000000e+00
    nodepairs_(4,_21)  _C1425    -1.000000000000e+00
    nodepairs_(4,_21)  _C1426    -1.000000000000e+00
    MARK      'MARKER'                 'INTEND'
    MARK      'MARKER'                 'INTORG'
    nodepairs_(4,_23)  _C5        1.000000000000e+00
    nodepairs_(4,_23)  _C49       1.000000000000e+00
    nodepairs_(4,_23)  _C235     -1.000000000000e+00
    nodepairs_(4,_23)  _C246     -1.000000000000e+00
    nodepairs_(4,_23)  _C247     -1.000000000000e+00
    nodepairs_(4,_23)  _C1481    -1.000000000000e+00
    nodepairs_(4,_23)  _C1483    -1.000000000000e+00
    nodepairs_(4,_23)  _C1484    -1.000000000000e+00
    MARK      'MARKER'                 'INTEND'
    MARK      'MARKER'                 'INTORG'
    nodepairs_(4,_3)  _C5        1.000000000000e+00
    nodepairs_(4,_3)  _C29       1.000000000000e+00
    nodepairs_(4,_3)  _C222     -1.000000000000e+00
    nodepairs_(4,_3)  _C223     -1.000000000000e+00
    nodepairs_(4,_3)  _C224     -1.000000000000e+00
    nodepairs_(4,_3)  _C901     -1.000000000000e+00
    nodepairs_(4,_3)  _C903     -1.000000000000e+00
    nodepairs_(4,_3)  _C904     -1.000000000000e+00
    MARK      'MARKER'                 'INTEND'
    MARK      'MARKER'                 'INTORG'
    nodepairs_(4,_4)  _C5        1.000000000000e+00
    nodepairs_(4,_4)  _C30       1.000000000000e+00
    nodepairs_(4,_4)  _C223     -1.000000000000e+00
    nodepairs_(4,_4)  _C225     -1.000000000000e+00
    nodepairs_(4,_4)  _C930     -1.000000000000e+00
    nodepairs_(4,_4)  _C932     -1.000000000000e+00
    nodepairs_(4,_4)  _C933     -1.000000000000e+00
    MARK      'MARKER'                 'INTEND'
    MARK      'MARKER'                 'INTORG'
    nodepairs_(4,_5)  _C5        1.000000000000e+00
    nodepairs_(4,_5)  _C31       1.000000000000e+00
    nodepairs_(4,_5)  _C225     -1.000000000000e+00
    nodepairs_(4,_5)  _C226     -1.000000000000e+00
    nodepairs_(4,_5)  _C227     -1.000000000000e+00
    nodepairs_(4,_5)  _C959     -1.000000000000e+00
    nodepairs_(4,_5)  _C961     -1.000000000000e+00
    nodepairs_(4,_5)  _C962     -1.000000000000e+00
    MARK      'MARKER'                 'INTEND'
    MARK      'MARKER'                 'INTORG'
    nodepairs_(4,_6)  _C5        1.000000000000e+00
    nodepairs_(4,_6)  _C32       1.000000000000e+00
    nodepairs_(4,_6)  _C226     -1.000000000000e+00
    nodepairs_(4,_6)  _C228     -1.000000000000e+00
    nodepairs_(4,_6)  _C229     -1.000000000000e+00
    nodepairs_(4,_6)  _C988     -1.000000000000e+00
    nodepairs_(4,_6)  _C990     -1.000000000000e+00
    nodepairs_(4,_6)  _C991     -1.000000000000e+00
    MARK      'MARKER'                 'INTEND'
    MARK      'MARKER'                 'INTORG'
    nodepairs_(4,_7)  _C5        1.000000000000e+00
    nodepairs_(4,_7)  _C33       1.000000000000e+00
    nodepairs_(4,_7)  _C228     -1.000000000000e+00
    nodepairs_(4,_7)  _C230     -1.000000000000e+00
    nodepairs_(4,_7)  _C231     -1.000000000000e+00
    nodepairs_(4,_7)  _C1017    -1.000000000000e+00
    nodepairs_(4,_7)  _C1019    -1.000000000000e+00
    nodepairs_(4,_7)  _C1020    -1.000000000000e+00
    MARK      'MARKER'                 'INTEND'
    MARK      'MARKER'                 'INTORG'
    nodepairs_(4,_9)  _C5        1.000000000000e+00
    nodepairs_(4,_9)  _C35       1.000000000000e+00
    nodepairs_(4,_9)  _C224     -1.000000000000e+00
    nodepairs_(4,_9)  _C231     -1.000000000000e+00
    nodepairs_(4,_9)  _C232     -1.000000000000e+00
    nodepairs_(4,_9)  _C1075    -1.000000000000e+00
    nodepairs_(4,_9)  _C1077    -1.000000000000e+00
    nodepairs_(4,_9)  _C1078    -1.000000000000e+00
    MARK      'MARKER'                 'INTEND'
    MARK      'MARKER'                 'INTORG'
    nodepairs_(5,_10)  _C6        1.000000000000e+00
    nodepairs_(5,_10)  _C36       1.000000000000e+00
    nodepairs_(5,_10)  _C260     -1.000000000000e+00
    nodepairs_(5,_10)  _C1106    -1.000000000000e+00
    MARK      'MARKER'                 'INTEND'
    MARK      'MARKER'                 'INTORG'
    nodepairs_(5,_20)  _C6        1.000000000000e+00
    nodepairs_(5,_20)  _C46       1.000000000000e+00
    nodepairs_(5,_20)  _C271     -1.000000000000e+00
    nodepairs_(5,_20)  _C1396    -1.000000000000e+00
    MARK      'MARKER'                 'INTEND'
    MARK      'MARKER'                 'INTORG'
    nodepairs_(5,_22)  _C6        1.000000000000e+00
    nodepairs_(5,_22)  _C48       1.000000000000e+00
    nodepairs_(5,_22)  _C273     -1.000000000000e+00
    nodepairs_(5,_22)  _C274     -1.000000000000e+00
    nodepairs_(5,_22)  _C1454    -1.000000000000e+00
    MARK      'MARKER'                 'INTEND'
    MARK      'MARKER'                 'INTORG'
    nodepairs_(5,_24)  _C6        1.000000000000e+00
    nodepairs_(5,_24)  _C50       1.000000000000e+00
    nodepairs_(5,_24)  _C275     -1.000000000000e+00
    nodepairs_(5,_24)  _C1512    -1.000000000000e+00
    MARK      'MARKER'                 'INTEND'
    MARK      'MARKER'                 'INTORG'
    nodepairs_(5,_8)  _C6        1.000000000000e+00
    nodepairs_(5,_8)  _C34       1.000000000000e+00
    nodepairs_(5,_8)  _C258     -1.000000000000e+00
    nodepairs_(5,_8)  _C1048    -1.000000000000e+00
    MARK      'MARKER'                 'INTEND'
    MARK      'MARKER'                 'INTORG'
    nodepairs_(6,_10)  _C7        1.000000000000e+00
    nodepairs_(6,_10)  _C36       1.000000000000e+00
    nodepairs_(6,_10)  _C288     -1.000000000000e+00
    nodepairs_(6,_10)  _C1107    -1.000000000000e+00
    MARK      'MARKER'                 'INTEND'
    MARK      'MARKER'                 'INTORG'
    nodepairs_(6,_20)  _C7        1.000000000000e+00
    nodepairs_(6,_20)  _C46       1.000000000000e+00
    nodepairs_(6,_20)  _C299     -1.000000000000e+00
    nodepairs_(6,_20)  _C1397    -1.000000000000e+00
    MARK      'MARKER'                 'INTEND'
    MARK      'MARKER'                 'INTORG'
    nodepairs_(6,_22)  _C7        1.000000000000e+00
    nodepairs_(6,_22)  _C48       1.000000000000e+00
    nodepairs_(6,_22)  _C301     -1.000000000000e+00
    nodepairs_(6,_22)  _C302     -1.000000000000e+00
    nodepairs_(6,_22)  _C1455    -1.000000000000e+00
    MARK      'MARKER'                 'INTEND'
    MARK      'MARKER'                 'INTORG'
    nodepairs_(6,_24)  _C7        1.000000000000e+00
    nodepairs_(6,_24)  _C50       1.000000000000e+00
    nodepairs_(6,_24)  _C303     -1.000000000000e+00
    nodepairs_(6,_24)  _C1513    -1.000000000000e+00
    MARK      'MARKER'                 'INTEND'
    MARK      'MARKER'                 'INTORG'
    nodepairs_(6,_8)  _C7        1.000000000000e+00
    nodepairs_(6,_8)  _C34       1.000000000000e+00
    nodepairs_(6,_8)  _C286     -1.000000000000e+00
    nodepairs_(6,_8)  _C1049    -1.000000000000e+00
    MARK      'MARKER'                 'INTEND'
    MARK      'MARKER'                 'INTORG'
    nodepairs_(7,_0)  _C8        1.000000000000e+00
    nodepairs_(7,_0)  _C26       1.000000000000e+00
    nodepairs_(7,_0)  _C304     -1.000000000000e+00
    nodepairs_(7,_0)  _C815     -1.000000000000e+00
    nodepairs_(7,_0)  _C818     -1.000000000000e+00
    nodepairs_(7,_0)  _C819     -1.000000000000e+00
    nodepairs_(7,_0)  _C820     -1.000000000000e+00
    MARK      'MARKER'                 'INTEND'
    MARK      'MARKER'                 'INTORG'
    nodepairs_(7,_1)  _C8        1.000000000000e+00
    nodepairs_(7,_1)  _C27       1.000000000000e+00
    nodepairs_(7,_1)  _C304     -1.000000000000e+00
    nodepairs_(7,_1)  _C305     -1.000000000000e+00
    nodepairs_(7,_1)  _C306     -1.000000000000e+00
    nodepairs_(7,_1)  _C844     -1.000000000000e+00
    nodepairs_(7,_1)  _C847     -1.000000000000e+00
    nodepairs_(7,_1)  _C848     -1.000000000000e+00
    nodepairs_(7,_1)  _C849     -1.000000000000e+00
    MARK      'MARKER'                 'INTEND'
    MARK      'MARKER'                 'INTORG'
    nodepairs_(7,_11)  _C8        1.000000000000e+00
    nodepairs_(7,_11)  _C37       1.000000000000e+00
    nodepairs_(7,_11)  _C313     -1.000000000000e+00
    nodepairs_(7,_11)  _C317     -1.000000000000e+00
    nodepairs_(7,_11)  _C318     -1.000000000000e+00
    nodepairs_(7,_11)  _C319     -1.000000000000e+00
    nodepairs_(7,_11)  _C1134    -1.000000000000e+00
    nodepairs_(7,_11)  _C1137    -1.000000000000e+00
    nodepairs_(7,_11)  _C1138    -1.000000000000e+00
    nodepairs_(7,_11)  _C1139    -1.000000000000e+00
    MARK      'MARKER'                 'INTEND'
    MARK      'MARKER'                 'INTORG'
    nodepairs_(7,_12)  _C8        1.000000000000e+00
    nodepairs_(7,_12)  _C38       1.000000000000e+00
    nodepairs_(7,_12)  _C317     -1.000000000000e+00
    nodepairs_(7,_12)  _C320     -1.000000000000e+00
    nodepairs_(7,_12)  _C1163    -1.000000000000e+00
    nodepairs_(7,_12)  _C1166    -1.000000000000e+00
    nodepairs_(7,_12)  _C1167    -1.000000000000e+00
    nodepairs_(7,_12)  _C1168    -1.000000000000e+00
    MARK      'MARKER'                 'INTEND'
    MARK      'MARKER'                 'INTORG'
    nodepairs_(7,_13)  _C8        1.000000000000e+00
    nodepairs_(7,_13)  _C39       1.000000000000e+00
    nodepairs_(7,_13)  _C320     -1.000000000000e+00
    nodepairs_(7,_13)  _C321     -1.000000000000e+00
    nodepairs_(7,_13)  _C1192    -1.000000000000e+00
    nodepairs_(7,_13)  _C1195    -1.000000000000e+00
    nodepairs_(7,_13)  _C1196    -1.000000000000e+00
    nodepairs_(7,_13)  _C1197    -1.000000000000e+00
    MARK      'MARKER'                 'INTEND'
    MARK      'MARKER'                 'INTORG'
    nodepairs_(7,_14)  _C8        1.000000000000e+00
    nodepairs_(7,_14)  _C40       1.000000000000e+00
    nodepairs_(7,_14)  _C321     -1.000000000000e+00
    nodepairs_(7,_14)  _C322     -1.000000000000e+00
    nodepairs_(7,_14)  _C1221    -1.000000000000e+00
    nodepairs_(7,_14)  _C1224    -1.000000000000e+00
    nodepairs_(7,_14)  _C1225    -1.000000000000e+00
    nodepairs_(7,_14)  _C1226    -1.000000000000e+00
    MARK      'MARKER'                 'INTEND'
    MARK      'MARKER'                 'INTORG'
    nodepairs_(7,_15)  _C8        1.000000000000e+00
    nodepairs_(7,_15)  _C41       1.000000000000e+00
    nodepairs_(7,_15)  _C322     -1.000000000000e+00
    nodepairs_(7,_15)  _C323     -1.000000000000e+00
    nodepairs_(7,_15)  _C324     -1.000000000000e+00
    nodepairs_(7,_15)  _C325     -1.000000000000e+00
    nodepairs_(7,_15)  _C1250    -1.000000000000e+00
    nodepairs_(7,_15)  _C1253    -1.000000000000e+00
    nodepairs_(7,_15)  _C1254    -1.000000000000e+00
    nodepairs_(7,_15)  _C1255    -1.000000000000e+00
    MARK      'MARKER'                 'INTEND'
    MARK      'MARKER'                 'INTORG'
    nodepairs_(7,_16)  _C8        1.000000000000e+00
    nodepairs_(7,_16)  _C42       1.000000000000e+00
    nodepairs_(7,_16)  _C323     -1.000000000000e+00
    nodepairs_(7,_16)  _C1279    -1.000000000000e+00
    nodepairs_(7,_16)  _C1282    -1.000000000000e+00
    nodepairs_(7,_16)  _C1283    -1.000000000000e+00
    nodepairs_(7,_16)  _C1284    -1.000000000000e+00
    MARK      'MARKER'                 'INTEND'
    MARK      'MARKER'                 'INTORG'
    nodepairs_(7,_17)  _C8        1.000000000000e+00
    nodepairs_(7,_17)  _C43       1.000000000000e+00
    nodepairs_(7,_17)  _C324     -1.000000000000e+00
    nodepairs_(7,_17)  _C1308    -1.000000000000e+00
    nodepairs_(7,_17)  _C1311    -1.000000000000e+00
    nodepairs_(7,_17)  _C1312    -1.000000000000e+00
    nodepairs_(7,_17)  _C1313    -1.000000000000e+00
    MARK      'MARKER'                 'INTEND'
    MARK      'MARKER'                 'INTORG'
    nodepairs_(7,_18)  _C8        1.000000000000e+00
    nodepairs_(7,_18)  _C44       1.000000000000e+00
    nodepairs_(7,_18)  _C318     -1.000000000000e+00
    nodepairs_(7,_18)  _C325     -1.000000000000e+00
    nodepairs_(7,_18)  _C326     -1.000000000000e+00
    nodepairs_(7,_18)  _C1337    -1.000000000000e+00
    nodepairs_(7,_18)  _C1340    -1.000000000000e+00
    nodepairs_(7,_18)  _C1341    -1.000000000000e+00
    nodepairs_(7,_18)  _C1342    -1.000000000000e+00
    MARK      'MARKER'                 'INTEND'
    MARK      'MARKER'                 'INTORG'
    nodepairs_(7,_19)  _C8        1.000000000000e+00
    nodepairs_(7,_19)  _C45       1.000000000000e+00
    nodepairs_(7,_19)  _C326     -1.000000000000e+00
    nodepairs_(7,_19)  _C327     -1.000000000000e+00
    nodepairs_(7,_19)  _C328     -1.000000000000e+00
    nodepairs_(7,_19)  _C1366    -1.000000000000e+00
    nodepairs_(7,_19)  _C1369    -1.000000000000e+00
    nodepairs_(7,_19)  _C1370    -1.000000000000e+00
    nodepairs_(7,_19)  _C1371    -1.000000000000e+00
    MARK      'MARKER'                 'INTEND'
    MARK      'MARKER'                 'INTORG'
    nodepairs_(7,_2)  _C8        1.000000000000e+00
    nodepairs_(7,_2)  _C28       1.000000000000e+00
    nodepairs_(7,_2)  _C305     -1.000000000000e+00
    nodepairs_(7,_2)  _C873     -1.000000000000e+00
    nodepairs_(7,_2)  _C876     -1.000000000000e+00
    nodepairs_(7,_2)  _C877     -1.000000000000e+00
    nodepairs_(7,_2)  _C878     -1.000000000000e+00
    MARK      'MARKER'                 'INTEND'
    MARK      'MARKER'                 'INTORG'
    nodepairs_(7,_21)  _C8        1.000000000000e+00
    nodepairs_(7,_21)  _C47       1.000000000000e+00
    nodepairs_(7,_21)  _C311     -1.000000000000e+00
    nodepairs_(7,_21)  _C328     -1.000000000000e+00
    nodepairs_(7,_21)  _C329     -1.000000000000e+00
    nodepairs_(7,_21)  _C1424    -1.000000000000e+00
    nodepairs_(7,_21)  _C1427    -1.000000000000e+00
    nodepairs_(7,_21)  _C1428    -1.000000000000e+00
    nodepairs_(7,_21)  _C1429    -1.000000000000e+00
    MARK      'MARKER'                 'INTEND'
    MARK      'MARKER'                 'INTORG'
    nodepairs_(7,_23)  _C8        1.000000000000e+00
    nodepairs_(7,_23)  _C49       1.000000000000e+00
    nodepairs_(7,_23)  _C319     -1.000000000000e+00
    nodepairs_(7,_23)  _C330     -1.000000000000e+00
    nodepairs_(7,_23)  _C331     -1.000000000000e+00
    nodepairs_(7,_23)  _C1482    -1.000000000000e+00
    nodepairs_(7,_23)  _C1485    -1.000000000000e+00
    nodepairs_(7,_23)  _C1486    -1.000000000000e+00
    nodepairs_(7,_23)  _C1487    -1.000000000000e+00
    MARK      'MARKER'                 'INTEND'
    MARK      'MARKER'                 'INTORG'
    nodepairs_(7,_3)  _C8        1.000000000000e+00
    nodepairs_(7,_3)  _C29       1.000000000000e+00
    nodepairs_(7,_3)  _C306     -1.000000000000e+00
    nodepairs_(7,_3)  _C307     -1.000000000000e+00
    nodepairs_(7,_3)  _C308     -1.000000000000e+00
    nodepairs_(7,_3)  _C902     -1.000000000000e+00
    nodepairs_(7,_3)  _C905     -1.000000000000e+00
    nodepairs_(7,_3)  _C906     -1.000000000000e+00
    nodepairs_(7,_3)  _C907     -1.000000000000e+00
    MARK      'MARKER'                 'INTEND'
    MARK      'MARKER'                 'INTORG'
    nodepairs_(7,_4)  _C8        1.000000000000e+00
    nodepairs_(7,_4)  _C30       1.000000000000e+00
    nodepairs_(7,_4)  _C307     -1.000000000000e+00
    nodepairs_(7,_4)  _C309     -1.000000000000e+00
    nodepairs_(7,_4)  _C931     -1.000000000000e+00
    nodepairs_(7,_4)  _C934     -1.000000000000e+00
    nodepairs_(7,_4)  _C935     -1.000000000000e+00
    nodepairs_(7,_4)  _C936     -1.000000000000e+00
    MARK      'MARKER'                 'INTEND'
    MARK      'MARKER'                 'INTORG'
    nodepairs_(7,_5)  _C8        1.000000000000e+00
    nodepairs_(7,_5)  _C31       1.000000000000e+00
    nodepairs_(7,_5)  _C309     -1.000000000000e+00
    nodepairs_(7,_5)  _C310     -1.000000000000e+00
    nodepairs_(7,_5)  _C311     -1.000000000000e+00
    nodepairs_(7,_5)  _C960     -1.000000000000e+00
    nodepairs_(7,_5)  _C963     -1.000000000000e+00
    nodepairs_(7,_5)  _C964     -1.000000000000e+00
    nodepairs_(7,_5)  _C965     -1.000000000000e+00
    MARK      'MARKER'                 'INTEND'
    MARK      'MARKER'                 'INTORG'
    nodepairs_(7,_6)  _C8        1.000000000000e+00
    nodepairs_(7,_6)  _C32       1.000000000000e+00
    nodepairs_(7,_6)  _C310     -1.000000000000e+00
    nodepairs_(7,_6)  _C312     -1.000000000000e+00
    nodepairs_(7,_6)  _C313     -1.000000000000e+00
    nodepairs_(7,_6)  _C989     -1.000000000000e+00
    nodepairs_(7,_6)  _C992     -1.000000000000e+00
    nodepairs_(7,_6)  _C993     -1.000000000000e+00
    nodepairs_(7,_6)  _C994     -1.000000000000e+00
    MARK      'MARKER'                 'INTEND'
    MARK      'MARKER'                 'INTORG'
    nodepairs_(7,_7)  _C8        1.000000000000e+00
    nodepairs_(7,_7)  _C33       1.000000000000e+00
    nodepairs_(7,_7)  _C312     -1.000000000000e+00
    nodepairs_(7,_7)  _C314     -1.000000000000e+00
    nodepairs_(7,_7)  _C315     -1.000000000000e+00
    nodepairs_(7,_7)  _C1018    -1.000000000000e+00
    nodepairs_(7,_7)  _C1021    -1.000000000000e+00
    nodepairs_(7,_7)  _C1022    -1.000000000000e+00
    nodepairs_(7,_7)  _C1023    -1.000000000000e+00
    MARK      'MARKER'                 'INTEND'
    MARK      'MARKER'                 'INTORG'
    nodepairs_(7,_9)  _C8        1.000000000000e+00
    nodepairs_(7,_9)  _C35       1.000000000000e+00
    nodepairs_(7,_9)  _C308     -1.000000000000e+00
    nodepairs_(7,_9)  _C315     -1.000000000000e+00
    nodepairs_(7,_9)  _C316     -1.000000000000e+00
    nodepairs_(7,_9)  _C1076    -1.000000000000e+00
    nodepairs_(7,_9)  _C1079    -1.000000000000e+00
    nodepairs_(7,_9)  _C1080    -1.000000000000e+00
    nodepairs_(7,_9)  _C1081    -1.000000000000e+00
    MARK      'MARKER'                 'INTEND'
    MARK      'MARKER'                 'INTORG'
    nodepairs_(8,_0)  _C9        1.000000000000e+00
    nodepairs_(8,_0)  _C26       1.000000000000e+00
    nodepairs_(8,_0)  _C332     -1.000000000000e+00
    nodepairs_(8,_0)  _C818     -1.000000000000e+00
    nodepairs_(8,_0)  _C821     -1.000000000000e+00
    MARK      'MARKER'                 'INTEND'
    MARK      'MARKER'                 'INTORG'
    nodepairs_(8,_1)  _C9        1.000000000000e+00
    nodepairs_(8,_1)  _C27       1.000000000000e+00
    nodepairs_(8,_1)  _C332     -1.000000000000e+00
    nodepairs_(8,_1)  _C333     -1.000000000000e+00
    nodepairs_(8,_1)  _C334     -1.000000000000e+00
    nodepairs_(8,_1)  _C847     -1.000000000000e+00
    nodepairs_(8,_1)  _C850     -1.000000000000e+00
    MARK      'MARKER'                 'INTEND'
    MARK      'MARKER'                 'INTORG'
    nodepairs_(8,_11)  _C9        1.000000000000e+00
    nodepairs_(8,_11)  _C37       1.000000000000e+00
    nodepairs_(8,_11)  _C341     -1.000000000000e+00
    nodepairs_(8,_11)  _C345     -1.000000000000e+00
    nodepairs_(8,_11)  _C346     -1.000000000000e+00
    nodepairs_(8,_11)  _C347     -1.000000000000e+00
    nodepairs_(8,_11)  _C1137    -1.000000000000e+00
    nodepairs_(8,_11)  _C1140    -1.000000000000e+00
    MARK      'MARKER'                 'INTEND'
    MARK      'MARKER'                 'INTORG'
    nodepairs_(8,_12)  _C9        1.000000000000e+00
    nodepairs_(8,_12)  _C38       1.000000000000e+00
    nodepairs_(8,_12)  _C345     -1.000000000000e+00
    nodepairs_(8,_12)  _C348     -1.000000000000e+00
    nodepairs_(8,_12)  _C1166    -1.000000000000e+00
    nodepairs_(8,_12)  _C1169    -1.000000000000e+00
    MARK      'MARKER'                 'INTEND'
    MARK      'MARKER'                 'INTORG'
    nodepairs_(8,_13)  _C9        1.000000000000e+00
    nodepairs_(8,_13)  _C39       1.000000000000e+00
    nodepairs_(8,_13)  _C348     -1.000000000000e+00
    nodepairs_(8,_13)  _C349     -1.000000000000e+00
    nodepairs_(8,_13)  _C1195    -1.000000000000e+00
    nodepairs_(8,_13)  _C1198    -1.000000000000e+00
    MARK      'MARKER'                 'INTEND'
    MARK      'MARKER'                 'INTORG'
    nodepairs_(8,_14)  _C9        1.000000000000e+00
    nodepairs_(8,_14)  _C40       1.000000000000e+00
    nodepairs_(8,_14)  _C349     -1.000000000000e+00
    nodepairs_(8,_14)  _C350     -1.000000000000e+00
    nodepairs_(8,_14)  _C1224    -1.000000000000e+00
    nodepairs_(8,_14)  _C1227    -1.000000000000e+00
    MARK      'MARKER'                 'INTEND'
    MARK      'MARKER'                 'INTORG'
    nodepairs_(8,_15)  _C9        1.000000000000e+00
    nodepairs_(8,_15)  _C41       1.000000000000e+00
    nodepairs_(8,_15)  _C350     -1.000000000000e+00
    nodepairs_(8,_15)  _C351     -1.000000000000e+00
    nodepairs_(8,_15)  _C352     -1.000000000000e+00
    nodepairs_(8,_15)  _C353     -1.000000000000e+00
    nodepairs_(8,_15)  _C1253    -1.000000000000e+00
    nodepairs_(8,_15)  _C1256    -1.000000000000e+00
    MARK      'MARKER'                 'INTEND'
    MARK      'MARKER'                 'INTORG'
    nodepairs_(8,_16)  _C9        1.000000000000e+00
    nodepairs_(8,_16)  _C42       1.000000000000e+00
    nodepairs_(8,_16)  _C351     -1.000000000000e+00
    nodepairs_(8,_16)  _C1282    -1.000000000000e+00
    nodepairs_(8,_16)  _C1285    -1.000000000000e+00
    MARK      'MARKER'                 'INTEND'
    MARK      'MARKER'                 'INTORG'
    nodepairs_(8,_17)  _C9        1.000000000000e+00
    nodepairs_(8,_17)  _C43       1.000000000000e+00
    nodepairs_(8,_17)  _C352     -1.000000000000e+00
    nodepairs_(8,_17)  _C1311    -1.000000000000e+00
    nodepairs_(8,_17)  _C1314    -1.000000000000e+00
    MARK      'MARKER'                 'INTEND'
    MARK      'MARKER'                 'INTORG'
    nodepairs_(8,_18)  _C9        1.000000000000e+00
    nodepairs_(8,_18)  _C44       1.000000000000e+00
    nodepairs_(8,_18)  _C346     -1.000000000000e+00
    nodepairs_(8,_18)  _C353     -1.000000000000e+00
    nodepairs_(8,_18)  _C354     -1.000000000000e+00
    nodepairs_(8,_18)  _C1340    -1.000000000000e+00
    nodepairs_(8,_18)  _C1343    -1.000000000000e+00
    MARK      'MARKER'                 'INTEND'
    MARK      'MARKER'                 'INTORG'
    nodepairs_(8,_19)  _C9        1.000000000000e+00
    nodepairs_(8,_19)  _C45       1.000000000000e+00
    nodepairs_(8,_19)  _C354     -1.000000000000e+00
    nodepairs_(8,_19)  _C355     -1.000000000000e+00
    nodepairs_(8,_19)  _C356     -1.000000000000e+00
    nodepairs_(8,_19)  _C1369    -1.000000000000e+00
    nodepairs_(8,_19)  _C1372    -1.000000000000e+00
    MARK      'MARKER'                 'INTEND'
    MARK      'MARKER'                 'INTORG'
    nodepairs_(8,_2)  _C9        1.000000000000e+00
    nodepairs_(8,_2)  _C28       1.000000000000e+00
    nodepairs_(8,_2)  _C333     -1.000000000000e+00
    nodepairs_(8,_2)  _C876     -1.000000000000e+00
    nodepairs_(8,_2)  _C879     -1.000000000000e+00
    MARK      'MARKER'                 'INTEND'
    MARK      'MARKER'                 'INTORG'
    nodepairs_(8,_21)  _C9        1.000000000000e+00
    nodepairs_(8,_21)  _C47       1.000000000000e+00
    nodepairs_(8,_21)  _C339     -1.000000000000e+00
    nodepairs_(8,_21)  _C356     -1.000000000000e+00
    nodepairs_(8,_21)  _C357     -1.000000000000e+00
    nodepairs_(8,_21)  _C1427    -1.000000000000e+00
    nodepairs_(8,_21)  _C1430    -1.000000000000e+00
    MARK      'MARKER'                 'INTEND'
    MARK      'MARKER'                 'INTORG'
    nodepairs_(8,_23)  _C9        1.000000000000e+00
    nodepairs_(8,_23)  _C49       1.000000000000e+00
    nodepairs_(8,_23)  _C347     -1.000000000000e+00
    nodepairs_(8,_23)  _C358     -1.000000000000e+00
    nodepairs_(8,_23)  _C359     -1.000000000000e+00
    nodepairs_(8,_23)  _C1485    -1.000000000000e+00
    nodepairs_(8,_23)  _C1488    -1.000000000000e+00
    MARK      'MARKER'                 'INTEND'
    MARK      'MARKER'                 'INTORG'
    nodepairs_(8,_3)  _C9        1.000000000000e+00
    nodepairs_(8,_3)  _C29       1.000000000000e+00
    nodepairs_(8,_3)  _C334     -1.000000000000e+00
    nodepairs_(8,_3)  _C335     -1.000000000000e+00
    nodepairs_(8,_3)  _C336     -1.000000000000e+00
    nodepairs_(8,_3)  _C905     -1.000000000000e+00
    nodepairs_(8,_3)  _C908     -1.000000000000e+00
    MARK      'MARKER'                 'INTEND'
    MARK      'MARKER'                 'INTORG'
    nodepairs_(8,_4)  _C9        1.000000000000e+00
    nodepairs_(8,_4)  _C30       1.000000000000e+00
    nodepairs_(8,_4)  _C335     -1.000000000000e+00
    nodepairs_(8,_4)  _C337     -1.000000000000e+00
    nodepairs_(8,_4)  _C934     -1.000000000000e+00
    nodepairs_(8,_4)  _C937     -1.000000000000e+00
    MARK      'MARKER'                 'INTEND'
    MARK      'MARKER'                 'INTORG'
    nodepairs_(8,_5)  _C9        1.000000000000e+00
    nodepairs_(8,_5)  _C31       1.000000000000e+00
    nodepairs_(8,_5)  _C337     -1.000000000000e+00
    nodepairs_(8,_5)  _C338     -1.000000000000e+00
    nodepairs_(8,_5)  _C339     -1.000000000000e+00
    nodepairs_(8,_5)  _C963     -1.000000000000e+00
    nodepairs_(8,_5)  _C966     -1.000000000000e+00
    MARK      'MARKER'                 'INTEND'
    MARK      'MARKER'                 'INTORG'
    nodepairs_(8,_6)  _C9        1.000000000000e+00
    nodepairs_(8,_6)  _C32       1.000000000000e+00
    nodepairs_(8,_6)  _C338     -1.000000000000e+00
    nodepairs_(8,_6)  _C340     -1.000000000000e+00
    nodepairs_(8,_6)  _C341     -1.000000000000e+00
    nodepairs_(8,_6)  _C992     -1.000000000000e+00
    nodepairs_(8,_6)  _C995     -1.000000000000e+00
    MARK      'MARKER'                 'INTEND'
    MARK      'MARKER'                 'INTORG'
    nodepairs_(8,_7)  _C9        1.000000000000e+00
    nodepairs_(8,_7)  _C33       1.000000000000e+00
    nodepairs_(8,_7)  _C340     -1.000000000000e+00
    nodepairs_(8,_7)  _C342     -1.000000000000e+00
    nodepairs_(8,_7)  _C343     -1.000000000000e+00
    nodepairs_(8,_7)  _C1021    -1.000000000000e+00
    nodepairs_(8,_7)  _C1024    -1.000000000000e+00
    MARK      'MARKER'                 'INTEND'
    MARK      'MARKER'                 'INTORG'
    nodepairs_(8,_9)  _C9        1.000000000000e+00
    nodepairs_(8,_9)  _C35       1.000000000000e+00
    nodepairs_(8,_9)  _C336     -1.000000000000e+00
    nodepairs_(8,_9)  _C343     -1.000000000000e+00
    nodepairs_(8,_9)  _C344     -1.000000000000e+00
    nodepairs_(8,_9)  _C1079    -1.000000000000e+00
    nodepairs_(8,_9)  _C1082    -1.000000000000e+00
    MARK      'MARKER'                 'INTEND'
    MARK      'MARKER'                 'INTORG'
    nodepairs_(9,_0)  _C10       1.000000000000e+00
    nodepairs_(9,_0)  _C26       1.000000000000e+00
    nodepairs_(9,_0)  _C360     -1.000000000000e+00
    nodepairs_(9,_0)  _C821     -1.000000000000e+00
    nodepairs_(9,_0)  _C822     -1.000000000000e+00
    nodepairs_(9,_0)  _C823     -1.000000000000e+00
    MARK      'MARKER'                 'INTEND'
    MARK      'MARKER'                 'INTORG'
    nodepairs_(9,_1)  _C10       1.000000000000e+00
    nodepairs_(9,_1)  _C27       1.000000000000e+00
    nodepairs_(9,_1)  _C360     -1.000000000000e+00
    nodepairs_(9,_1)  _C361     -1.000000000000e+00
    nodepairs_(9,_1)  _C362     -1.000000000000e+00
    nodepairs_(9,_1)  _C850     -1.000000000000e+00
    nodepairs_(9,_1)  _C851     -1.000000000000e+00
    nodepairs_(9,_1)  _C852     -1.000000000000e+00
    MARK      'MARKER'                 'INTEND'
    MARK      'MARKER'                 'INTORG'
    nodepairs_(9,_11)  _C10       1.000000000000e+00
    nodepairs_(9,_11)  _C37       1.000000000000e+00
    nodepairs_(9,_11)  _C369     -1.000000000000e+00
    nodepairs_(9,_11)  _C373     -1.000000000000e+00
    nodepairs_(9,_11)  _C374     -1.000000000000e+00
    nodepairs_(9,_11)  _C375     -1.000000000000e+00
    nodepairs_(9,_11)  _C1140    -1.000000000000e+00
    nodepairs_(9,_11)  _C1141    -1.000000000000e+00
    nodepairs_(9,_11)  _C1142    -1.000000000000e+00
    MARK      'MARKER'                 'INTEND'
    MARK      'MARKER'                 'INTORG'
    nodepairs_(9,_12)  _C10       1.000000000000e+00
    nodepairs_(9,_12)  _C38       1.000000000000e+00
    nodepairs_(9,_12)  _C373     -1.000000000000e+00
    nodepairs_(9,_12)  _C376     -1.000000000000e+00
    nodepairs_(9,_12)  _C1169    -1.000000000000e+00
    nodepairs_(9,_12)  _C1170    -1.000000000000e+00
    nodepairs_(9,_12)  _C1171    -1.000000000000e+00
    MARK      'MARKER'                 'INTEND'
    MARK      'MARKER'                 'INTORG'
    nodepairs_(9,_13)  _C10       1.000000000000e+00
    nodepairs_(9,_13)  _C39       1.000000000000e+00
    nodepairs_(9,_13)  _C376     -1.000000000000e+00
    nodepairs_(9,_13)  _C377     -1.000000000000e+00
    nodepairs_(9,_13)  _C1198    -1.000000000000e+00
    nodepairs_(9,_13)  _C1199    -1.000000000000e+00
    nodepairs_(9,_13)  _C1200    -1.000000000000e+00
    MARK      'MARKER'                 'INTEND'
    MARK      'MARKER'                 'INTORG'
    nodepairs_(9,_14)  _C10       1.000000000000e+00
    nodepairs_(9,_14)  _C40       1.000000000000e+00
    nodepairs_(9,_14)  _C377     -1.000000000000e+00
    nodepairs_(9,_14)  _C378     -1.000000000000e+00
    nodepairs_(9,_14)  _C1227    -1.000000000000e+00
    nodepairs_(9,_14)  _C1228    -1.000000000000e+00
    nodepairs_(9,_14)  _C1229    -1.000000000000e+00
    MARK      'MARKER'                 'INTEND'
    MARK      'MARKER'                 'INTORG'
    nodepairs_(9,_15)  _C10       1.000000000000e+00
    nodepairs_(9,_15)  _C41       1.000000000000e+00
    nodepairs_(9,_15)  _C378     -1.000000000000e+00
    nodepairs_(9,_15)  _C379     -1.000000000000e+00
    nodepairs_(9,_15)  _C380     -1.000000000000e+00
    nodepairs_(9,_15)  _C381     -1.000000000000e+00
    nodepairs_(9,_15)  _C1256    -1.000000000000e+00
    nodepairs_(9,_15)  _C1257    -1.000000000000e+00
    nodepairs_(9,_15)  _C1258    -1.000000000000e+00
    MARK      'MARKER'                 'INTEND'
    MARK      'MARKER'                 'INTORG'
    nodepairs_(9,_16)  _C10       1.000000000000e+00
    nodepairs_(9,_16)  _C42       1.000000000000e+00
    nodepairs_(9,_16)  _C379     -1.000000000000e+00
    nodepairs_(9,_16)  _C1285    -1.000000000000e+00
    nodepairs_(9,_16)  _C1286    -1.000000000000e+00
    nodepairs_(9,_16)  _C1287    -1.000000000000e+00
    MARK      'MARKER'                 'INTEND'
    MARK      'MARKER'                 'INTORG'
    nodepairs_(9,_17)  _C10       1.000000000000e+00
    nodepairs_(9,_17)  _C43       1.000000000000e+00
    nodepairs_(9,_17)  _C380     -1.000000000000e+00
    nodepairs_(9,_17)  _C1314    -1.000000000000e+00
    nodepairs_(9,_17)  _C1315    -1.000000000000e+00
    nodepairs_(9,_17)  _C1316    -1.000000000000e+00
    MARK      'MARKER'                 'INTEND'
    MARK      'MARKER'                 'INTORG'
    nodepairs_(9,_18)  _C10       1.000000000000e+00
    nodepairs_(9,_18)  _C44       1.000000000000e+00
    nodepairs_(9,_18)  _C374     -1.000000000000e+00
    nodepairs_(9,_18)  _C381     -1.000000000000e+00
    nodepairs_(9,_18)  _C382     -1.000000000000e+00
    nodepairs_(9,_18)  _C1343    -1.000000000000e+00
    nodepairs_(9,_18)  _C1344    -1.000000000000e+00
    nodepairs_(9,_18)  _C1345    -1.000000000000e+00
    MARK      'MARKER'                 'INTEND'
    MARK      'MARKER'                 'INTORG'
    nodepairs_(9,_19)  _C10       1.000000000000e+00
    nodepairs_(9,_19)  _C45       1.000000000000e+00
    nodepairs_(9,_19)  _C382     -1.000000000000e+00
    nodepairs_(9,_19)  _C383     -1.000000000000e+00
    nodepairs_(9,_19)  _C384     -1.000000000000e+00
    nodepairs_(9,_19)  _C1372    -1.000000000000e+00
    nodepairs_(9,_19)  _C1373    -1.000000000000e+00
    nodepairs_(9,_19)  _C1374    -1.000000000000e+00
    MARK      'MARKER'                 'INTEND'
    MARK      'MARKER'                 'INTORG'
    nodepairs_(9,_2)  _C10       1.000000000000e+00
    nodepairs_(9,_2)  _C28       1.000000000000e+00
    nodepairs_(9,_2)  _C361     -1.000000000000e+00
    nodepairs_(9,_2)  _C879     -1.000000000000e+00
    nodepairs_(9,_2)  _C880     -1.000000000000e+00
    nodepairs_(9,_2)  _C881     -1.000000000000e+00
    MARK      'MARKER'                 'INTEND'
    MARK      'MARKER'                 'INTORG'
    nodepairs_(9,_21)  _C10       1.000000000000e+00
    nodepairs_(9,_21)  _C47       1.000000000000e+00
    nodepairs_(9,_21)  _C367     -1.000000000000e+00
    nodepairs_(9,_21)  _C384     -1.000000000000e+00
    nodepairs_(9,_21)  _C385     -1.000000000000e+00
    nodepairs_(9,_21)  _C1430    -1.000000000000e+00
    nodepairs_(9,_21)  _C1431    -1.000000000000e+00
    nodepairs_(9,_21)  _C1432    -1.000000000000e+00
    MARK      'MARKER'                 'INTEND'
    MARK      'MARKER'                 'INTORG'
    nodepairs_(9,_23)  _C10       1.000000000000e+00
    nodepairs_(9,_23)  _C49       1.000000000000e+00
    nodepairs_(9,_23)  _C375     -1.000000000000e+00
    nodepairs_(9,_23)  _C386     -1.000000000000e+00
    nodepairs_(9,_23)  _C387     -1.000000000000e+00
    nodepairs_(9,_23)  _C1488    -1.000000000000e+00
    nodepairs_(9,_23)  _C1489    -1.000000000000e+00
    nodepairs_(9,_23)  _C1490    -1.000000000000e+00
    MARK      'MARKER'                 'INTEND'
    MARK      'MARKER'                 'INTORG'
    nodepairs_(9,_3)  _C10       1.000000000000e+00
    nodepairs_(9,_3)  _C29       1.000000000000e+00
    nodepairs_(9,_3)  _C362     -1.000000000000e+00
    nodepairs_(9,_3)  _C363     -1.000000000000e+00
    nodepairs_(9,_3)  _C364     -1.000000000000e+00
    nodepairs_(9,_3)  _C908     -1.000000000000e+00
    nodepairs_(9,_3)  _C909     -1.000000000000e+00
    nodepairs_(9,_3)  _C910     -1.000000000000e+00
    MARK      'MARKER'                 'INTEND'
    MARK      'MARKER'                 'INTORG'
    nodepairs_(9,_4)  _C10       1.000000000000e+00
    nodepairs_(9,_4)  _C30       1.000000000000e+00
    nodepairs_(9,_4)  _C363     -1.000000000000e+00
    nodepairs_(9,_4)  _C365     -1.000000000000e+00
    nodepairs_(9,_4)  _C937     -1.000000000000e+00
    nodepairs_(9,_4)  _C938     -1.000000000000e+00
    nodepairs_(9,_4)  _C939     -1.000000000000e+00
    MARK      'MARKER'                 'INTEND'
    MARK      'MARKER'                 'INTORG'
    nodepairs_(9,_5)  _C10       1.000000000000e+00
    nodepairs_(9,_5)  _C31       1.000000000000e+00
    nodepairs_(9,_5)  _C365     -1.000000000000e+00
    nodepairs_(9,_5)  _C366     -1.000000000000e+00
    nodepairs_(9,_5)  _C367     -1.000000000000e+00
    nodepairs_(9,_5)  _C966     -1.000000000000e+00
    nodepairs_(9,_5)  _C967     -1.000000000000e+00
    nodepairs_(9,_5)  _C968     -1.000000000000e+00
    MARK      'MARKER'                 'INTEND'
    MARK      'MARKER'                 'INTORG'
    nodepairs_(9,_6)  _C10       1.000000000000e+00
    nodepairs_(9,_6)  _C32       1.000000000000e+00
    nodepairs_(9,_6)  _C366     -1.000000000000e+00
    nodepairs_(9,_6)  _C368     -1.000000000000e+00
    nodepairs_(9,_6)  _C369     -1.000000000000e+00
    nodepairs_(9,_6)  _C995     -1.000000000000e+00
    nodepairs_(9,_6)  _C996     -1.000000000000e+00
    nodepairs_(9,_6)  _C997     -1.000000000000e+00
    MARK      'MARKER'                 'INTEND'
    MARK      'MARKER'                 'INTORG'
    nodepairs_(9,_7)  _C10       1.000000000000e+00
    nodepairs_(9,_7)  _C33       1.000000000000e+00
    nodepairs_(9,_7)  _C368     -1.000000000000e+00
    nodepairs_(9,_7)  _C370     -1.000000000000e+00
    nodepairs_(9,_7)  _C371     -1.000000000000e+00
    nodepairs_(9,_7)  _C1024    -1.000000000000e+00
    nodepairs_(9,_7)  _C1025    -1.000000000000e+00
    nodepairs_(9,_7)  _C1026    -1.000000000000e+00
    MARK      'MARKER'                 'INTEND'
    MARK      'MARKER'                 'INTORG'
    nodepairs_(9,_9)  _C10       1.000000000000e+00
    nodepairs_(9,_9)  _C35       1.000000000000e+00
    nodepairs_(9,_9)  _C364     -1.000000000000e+00
    nodepairs_(9,_9)  _C371     -1.000000000000e+00
    nodepairs_(9,_9)  _C372     -1.000000000000e+00
    nodepairs_(9,_9)  _C1082    -1.000000000000e+00
    nodepairs_(9,_9)  _C1083    -1.000000000000e+00
    nodepairs_(9,_9)  _C1084    -1.000000000000e+00
    MARK      'MARKER'                 'INTEND'
RHS
    RHS       _C1        1.000000000000e+00
    RHS       _C2        1.000000000000e+00
    RHS       _C3        1.000000000000e+00
    RHS       _C4        1.000000000000e+00
    RHS       _C5        1.000000000000e+00
    RHS       _C6        1.000000000000e+00
    RHS       _C7        1.000000000000e+00
    RHS       _C8        1.000000000000e+00
    RHS       _C9        1.000000000000e+00
    RHS       _C10       1.000000000000e+00
    RHS       _C11       1.000000000000e+00
    RHS       _C12       1.000000000000e+00
    RHS       _C13       1.000000000000e+00
    RHS       _C14       1.000000000000e+00
    RHS       _C15       1.000000000000e+00
    RHS       _C16       1.000000000000e+00
    RHS       _C17       1.000000000000e+00
    RHS       _C18       1.000000000000e+00
    RHS       _C19       1.000000000000e+00
    RHS       _C20       1.000000000000e+00
    RHS       _C21       1.000000000000e+00
    RHS       _C22       1.000000000000e+00
    RHS       _C23       1.000000000000e+00
    RHS       _C24       1.000000000000e+00
    RHS       _C25       1.000000000000e+00
    RHS       _C26       1.000000000000e+00
    RHS       _C27       1.000000000000e+00
    RHS       _C28       1.000000000000e+00
    RHS       _C29       1.000000000000e+00
    RHS       _C30       1.000000000000e+00
    RHS       _C31       1.000000000000e+00
    RHS       _C32       1.000000000000e+00
    RHS       _C33       1.000000000000e+00
    RHS       _C34       1.000000000000e+00
    RHS       _C35       1.000000000000e+00
    RHS       _C36       1.000000000000e+00
    RHS       _C37       1.000000000000e+00
    RHS       _C38       1.000000000000e+00
    RHS       _C39       1.000000000000e+00
    RHS       _C40       1.000000000000e+00
    RHS       _C41       1.000000000000e+00
    RHS       _C42       1.000000000000e+00
    RHS       _C43       1.000000000000e+00
    RHS       _C44       1.000000000000e+00
    RHS       _C45       1.000000000000e+00
    RHS       _C46       1.000000000000e+00
    RHS       _C47       1.000000000000e+00
    RHS       _C48       1.000000000000e+00
    RHS       _C49       1.000000000000e+00
    RHS       _C50       1.000000000000e+00
    RHS       _C51       1.000000000000e+00
    RHS       _C52       1.000000000000e+00
    RHS       _C53       1.000000000000e+00
    RHS       _C54       1.000000000000e+00
    RHS       _C55       1.000000000000e+00
    RHS       _C56       1.000000000000e+00
    RHS       _C57       1.000000000000e+00
    RHS       _C58       1.000000000000e+00
    RHS       _C59       1.000000000000e+00
    RHS       _C60       1.000000000000e+00
    RHS       _C61       1.000000000000e+00
    RHS       _C62       1.000000000000e+00
    RHS       _C63       1.000000000000e+00
    RHS       _C64       1.000000000000e+00
    RHS       _C65       1.000000000000e+00
    RHS       _C66       1.000000000000e+00
    RHS       _C67       1.000000000000e+00
    RHS       _C68       1.000000000000e+00
    RHS       _C69       1.000000000000e+00
    RHS       _C70       1.000000000000e+00
    RHS       _C71       1.000000000000e+00
    RHS       _C72       1.000000000000e+00
    RHS       _C73       1.000000000000e+00
    RHS       _C74       1.000000000000e+00
    RHS       _C75       1.000000000000e+00
    RHS       _C76       1.000000000000e+00
    RHS       _C77       1.000000000000e+00
    RHS       _C78       1.000000000000e+00
    RHS       _C79       1.000000000000e+00
    RHS       _C80       1.000000000000e+00
    RHS       _C81       1.000000000000e+00
    RHS       _C82       1.000000000000e+00
    RHS       _C83       1.000000000000e+00
    RHS       _C84       1.000000000000e+00
    RHS       _C85       1.000000000000e+00
    RHS       _C86       1.000000000000e+00
    RHS       _C87       1.000000000000e+00
    RHS       _C88       1.000000000000e+00
    RHS       _C89       1.000000000000e+00
    RHS       _C90       1.000000000000e+00
    RHS       _C91       1.000000000000e+00
    RHS       _C92       1.000000000000e+00
    RHS       _C93       1.000000000000e+00
    RHS       _C94       1.000000000000e+00
    RHS       _C95       1.000000000000e+00
    RHS       _C96       1.000000000000e+00
    RHS       _C97       1.000000000000e+00
    RHS       _C98       1.000000000000e+00
    RHS       _C99       1.000000000000e+00
    RHS       _C100      1.000000000000e+00
    RHS       _C101      1.000000000000e+00
    RHS       _C102      1.000000000000e+00
    RHS       _C103      1.000000000000e+00
    RHS       _C104      1.000000000000e+00
    RHS       _C105      1.000000000000e+00
    RHS       _C106      1.000000000000e+00
    RHS       _C107      1.000000000000e+00
    RHS       _C108      0.000000000000e+00
    RHS       _C109      0.000000000000e+00
    RHS       _C110      0.000000000000e+00
    RHS       _C111      0.000000000000e+00
    RHS       _C112      0.000000000000e+00
    RHS       _C113      0.000000000000e+00
    RHS       _C114      0.000000000000e+00
    RHS       _C115      0.000000000000e+00
    RHS       _C116      0.000000000000e+00
    RHS       _C117      0.000000000000e+00
    RHS       _C118      0.000000000000e+00
    RHS       _C119      0.000000000000e+00
    RHS       _C120      0.000000000000e+00
    RHS       _C121      0.000000000000e+00
    RHS       _C122      0.000000000000e+00
    RHS       _C123      0.000000000000e+00
    RHS       _C124      0.000000000000e+00
    RHS       _C125      0.000000000000e+00
    RHS       _C126      0.000000000000e+00
    RHS       _C127      0.000000000000e+00
    RHS       _C128      0.000000000000e+00
    RHS       _C129      0.000000000000e+00
    RHS       _C130      0.000000000000e+00
    RHS       _C131      0.000000000000e+00
    RHS       _C132      0.000000000000e+00
    RHS       _C133      0.000000000000e+00
    RHS       _C134      0.000000000000e+00
    RHS       _C135      0.000000000000e+00
    RHS       _C136      0.000000000000e+00
    RHS       _C137      0.000000000000e+00
    RHS       _C138      0.000000000000e+00
    RHS       _C139      0.000000000000e+00
    RHS       _C140      0.000000000000e+00
    RHS       _C141      0.000000000000e+00
    RHS       _C142      0.000000000000e+00
    RHS       _C143      0.000000000000e+00
    RHS       _C144      0.000000000000e+00
    RHS       _C145      0.000000000000e+00
    RHS       _C146      0.000000000000e+00
    RHS       _C147      0.000000000000e+00
    RHS       _C148      0.000000000000e+00
    RHS       _C149      0.000000000000e+00
    RHS       _C150      0.000000000000e+00
    RHS       _C151      0.000000000000e+00
    RHS       _C152      0.000000000000e+00
    RHS       _C153      0.000000000000e+00
    RHS       _C154      0.000000000000e+00
    RHS       _C155      0.000000000000e+00
    RHS       _C156      0.000000000000e+00
    RHS       _C157      0.000000000000e+00
    RHS       _C158      0.000000000000e+00
    RHS       _C159      0.000000000000e+00
    RHS       _C160      0.000000000000e+00
    RHS       _C161      0.000000000000e+00
    RHS       _C162      0.000000000000e+00
    RHS       _C163      0.000000000000e+00
    RHS       _C164      0.000000000000e+00
    RHS       _C165      0.000000000000e+00
    RHS       _C166      0.000000000000e+00
    RHS       _C167      0.000000000000e+00
    RHS       _C168      0.000000000000e+00
    RHS       _C169      0.000000000000e+00
    RHS       _C170      0.000000000000e+00
    RHS       _C171      0.000000000000e+00
    RHS       _C172      0.000000000000e+00
    RHS       _C173      0.000000000000e+00
    RHS       _C174      0.000000000000e+00
    RHS       _C175      0.000000000000e+00
    RHS       _C176      0.000000000000e+00
    RHS       _C177      0.000000000000e+00
    RHS       _C178      0.000000000000e+00
    RHS       _C179      0.000000000000e+00
    RHS       _C180      0.000000000000e+00
    RHS       _C181      0.000000000000e+00
    RHS       _C182      0.000000000000e+00
    RHS       _C183      0.000000000000e+00
    RHS       _C184      0.000000000000e+00
    RHS       _C185      0.000000000000e+00
    RHS       _C186      0.000000000000e+00
    RHS       _C187      0.000000000000e+00
    RHS       _C188      0.000000000000e+00
    RHS       _C189      0.000000000000e+00
    RHS       _C190      0.000000000000e+00
    RHS       _C191      0.000000000000e+00
    RHS       _C192      0.000000000000e+00
    RHS       _C193      0.000000000000e+00
    RHS       _C194      0.000000000000e+00
    RHS       _C195      0.000000000000e+00
    RHS       _C196      0.000000000000e+00
    RHS       _C197      0.000000000000e+00
    RHS       _C198      0.000000000000e+00
    RHS       _C199      0.000000000000e+00
    RHS       _C200      0.000000000000e+00
    RHS       _C201      0.000000000000e+00
    RHS       _C202      0.000000000000e+00
    RHS       _C203      0.000000000000e+00
    RHS       _C204      0.000000000000e+00
    RHS       _C205      0.000000000000e+00
    RHS       _C206      0.000000000000e+00
    RHS       _C207      0.000000000000e+00
    RHS       _C208      0.000000000000e+00
    RHS       _C209      0.000000000000e+00
    RHS       _C210      0.000000000000e+00
    RHS       _C211      0.000000000000e+00
    RHS       _C212      0.000000000000e+00
    RHS       _C213      0.000000000000e+00
    RHS       _C214      0.000000000000e+00
    RHS       _C215      0.000000000000e+00
    RHS       _C216      0.000000000000e+00
    RHS       _C217      0.000000000000e+00
    RHS       _C218      0.000000000000e+00
    RHS       _C219      0.000000000000e+00
    RHS       _C220      0.000000000000e+00
    RHS       _C221      0.000000000000e+00
    RHS       _C222      0.000000000000e+00
    RHS       _C223      0.000000000000e+00
    RHS       _C224      0.000000000000e+00
    RHS       _C225      0.000000000000e+00
    RHS       _C226      0.000000000000e+00
    RHS       _C227      0.000000000000e+00
    RHS       _C228      0.000000000000e+00
    RHS       _C229      0.000000000000e+00
    RHS       _C230      0.000000000000e+00
    RHS       _C231      0.000000000000e+00
    RHS       _C232      0.000000000000e+00
    RHS       _C233      0.000000000000e+00
    RHS       _C234      0.000000000000e+00
    RHS       _C235      0.000000000000e+00
    RHS       _C236      0.000000000000e+00
    RHS       _C237      0.000000000000e+00
    RHS       _C238      0.000000000000e+00
    RHS       _C239      0.000000000000e+00
    RHS       _C240      0.000000000000e+00
    RHS       _C241      0.000000000000e+00
    RHS       _C242      0.000000000000e+00
    RHS       _C243      0.000000000000e+00
    RHS       _C244      0.000000000000e+00
    RHS       _C245      0.000000000000e+00
    RHS       _C246      0.000000000000e+00
    RHS       _C247      0.000000000000e+00
    RHS       _C248      0.000000000000e+00
    RHS       _C249      0.000000000000e+00
    RHS       _C250      0.000000000000e+00
    RHS       _C251      0.000000000000e+00
    RHS       _C252      0.000000000000e+00
    RHS       _C253      0.000000000000e+00
    RHS       _C254      0.000000000000e+00
    RHS       _C255      0.000000000000e+00
    RHS       _C256      0.000000000000e+00
    RHS       _C257      0.000000000000e+00
    RHS       _C258      0.000000000000e+00
    RHS       _C259      0.000000000000e+00
    RHS       _C260      0.000000000000e+00
    RHS       _C261      0.000000000000e+00
    RHS       _C262      0.000000000000e+00
    RHS       _C263      0.000000000000e+00
    RHS       _C264      0.000000000000e+00
    RHS       _C265      0.000000000000e+00
    RHS       _C266      0.000000000000e+00
    RHS       _C267      0.000000000000e+00
    RHS       _C268      0.000000000000e+00
    RHS       _C269      0.000000000000e+00
    RHS       _C270      0.000000000000e+00
    RHS       _C271      0.000000000000e+00
    RHS       _C272      0.000000000000e+00
    RHS       _C273      0.000000000000e+00
    RHS       _C274      0.000000000000e+00
    RHS       _C275      0.000000000000e+00
    RHS       _C276      0.000000000000e+00
    RHS       _C277      0.000000000000e+00
    RHS       _C278      0.000000000000e+00
    RHS       _C279      0.000000000000e+00
    RHS       _C280      0.000000000000e+00
    RHS       _C281      0.000000000000e+00
    RHS       _C282      0.000000000000e+00
    RHS       _C283      0.000000000000e+00
    RHS       _C284      0.000000000000e+00
    RHS       _C285      0.000000000000e+00
    RHS       _C286      0.000000000000e+00
    RHS       _C287      0.000000000000e+00
    RHS       _C288      0.000000000000e+00
    RHS       _C289      0.000000000000e+00
    RHS       _C290      0.000000000000e+00
    RHS       _C291      0.000000000000e+00
    RHS       _C292      0.000000000000e+00
    RHS       _C293      0.000000000000e+00
    RHS       _C294      0.000000000000e+00
    RHS       _C295      0.000000000000e+00
    RHS       _C296      0.000000000000e+00
    RHS       _C297      0.000000000000e+00
    RHS       _C298      0.000000000000e+00
    RHS       _C299      0.000000000000e+00
    RHS       _C300      0.000000000000e+00
    RHS       _C301      0.000000000000e+00
    RHS       _C302      0.000000000000e+00
    RHS       _C303      0.000000000000e+00
    RHS       _C304      0.000000000000e+00
    RHS       _C305      0.000000000000e+00
    RHS       _C306      0.000000000000e+00
    RHS       _C307      0.000000000000e+00
    RHS       _C308      0.000000000000e+00
    RHS       _C309      0.000000000000e+00
    RHS       _C310      0.000000000000e+00
    RHS       _C311      0.000000000000e+00
    RHS       _C312      0.000000000000e+00
    RHS       _C313      0.000000000000e+00
    RHS       _C314      0.000000000000e+00
    RHS       _C315      0.000000000000e+00
    RHS       _C316      0.000000000000e+00
    RHS       _C317      0.000000000000e+00
    RHS       _C318      0.000000000000e+00
    RHS       _C319      0.000000000000e+00
    RHS       _C320      0.000000000000e+00
    RHS       _C321      0.000000000000e+00
    RHS       _C322      0.000000000000e+00
    RHS       _C323      0.000000000000e+00
    RHS       _C324      0.000000000000e+00
    RHS       _C325      0.000000000000e+00
    RHS       _C326      0.000000000000e+00
    RHS       _C327      0.000000000000e+00
    RHS       _C328      0.000000000000e+00
    RHS       _C329      0.000000000000e+00
    RHS       _C330      0.000000000000e+00
    RHS       _C331      0.000000000000e+00
    RHS       _C332      0.000000000000e+00
    RHS       _C333      0.000000000000e+00
    RHS       _C334      0.000000000000e+00
    RHS       _C335      0.000000000000e+00
    RHS       _C336      0.000000000000e+00
    RHS       _C337      0.000000000000e+00
    RHS       _C338      0.000000000000e+00
    RHS       _C339      0.000000000000e+00
    RHS       _C340      0.000000000000e+00
    RHS       _C341      0.000000000000e+00
    RHS       _C342      0.000000000000e+00
    RHS       _C343      0.000000000000e+00
    RHS       _C344      0.000000000000e+00
    RHS       _C345      0.000000000000e+00
    RHS       _C346      0.000000000000e+00
    RHS       _C347      0.000000000000e+00
    RHS       _C348      0.000000000000e+00
    RHS       _C349      0.000000000000e+00
    RHS       _C350      0.000000000000e+00
    RHS       _C351      0.000000000000e+00
    RHS       _C352      0.000000000000e+00
    RHS       _C353      0.000000000000e+00
    RHS       _C354      0.000000000000e+00
    RHS       _C355      0.000000000000e+00
    RHS       _C356      0.000000000000e+00
    RHS       _C357      0.000000000000e+00
    RHS       _C358      0.000000000000e+00
    RHS       _C359      0.000000000000e+00
    RHS       _C360      0.000000000000e+00
    RHS       _C361      0.000000000000e+00
    RHS       _C362      0.000000000000e+00
    RHS       _C363      0.000000000000e+00
    RHS       _C364      0.000000000000e+00
    RHS       _C365      0.000000000000e+00
    RHS       _C366      0.000000000000e+00
    RHS       _C367      0.000000000000e+00
    RHS       _C368      0.000000000000e+00
    RHS       _C369      0.000000000000e+00
    RHS       _C370      0.000000000000e+00
    RHS       _C371      0.000000000000e+00
    RHS       _C372      0.000000000000e+00
    RHS       _C373      0.000000000000e+00
    RHS       _C374      0.000000000000e+00
    RHS       _C375      0.000000000000e+00
    RHS       _C376      0.000000000000e+00
    RHS       _C377      0.000000000000e+00
    RHS       _C378      0.000000000000e+00
    RHS       _C379      0.000000000000e+00
    RHS       _C380      0.000000000000e+00
    RHS       _C381      0.000000000000e+00
    RHS       _C382      0.000000000000e+00
    RHS       _C383      0.000000000000e+00
    RHS       _C384      0.000000000000e+00
    RHS       _C385      0.000000000000e+00
    RHS       _C386      0.000000000000e+00
    RHS       _C387      0.000000000000e+00
    RHS       _C388      0.000000000000e+00
    RHS       _C389      0.000000000000e+00
    RHS       _C390      0.000000000000e+00
    RHS       _C391      0.000000000000e+00
    RHS       _C392      0.000000000000e+00
    RHS       _C393      0.000000000000e+00
    RHS       _C394      0.000000000000e+00
    RHS       _C395      0.000000000000e+00
    RHS       _C396      0.000000000000e+00
    RHS       _C397      0.000000000000e+00
    RHS       _C398      0.000000000000e+00
    RHS       _C399      0.000000000000e+00
    RHS       _C400      0.000000000000e+00
    RHS       _C401      0.000000000000e+00
    RHS       _C402      0.000000000000e+00
    RHS       _C403      0.000000000000e+00
    RHS       _C404      0.000000000000e+00
    RHS       _C405      0.000000000000e+00
    RHS       _C406      0.000000000000e+00
    RHS       _C407      0.000000000000e+00
    RHS       _C408      0.000000000000e+00
    RHS       _C409      0.000000000000e+00
    RHS       _C410      0.000000000000e+00
    RHS       _C411      0.000000000000e+00
    RHS       _C412      0.000000000000e+00
    RHS       _C413      0.000000000000e+00
    RHS       _C414      0.000000000000e+00
    RHS       _C415      0.000000000000e+00
    RHS       _C416      0.000000000000e+00
    RHS       _C417      0.000000000000e+00
    RHS       _C418      0.000000000000e+00
    RHS       _C419      0.000000000000e+00
    RHS       _C420      0.000000000000e+00
    RHS       _C421      0.000000000000e+00
    RHS       _C422      0.000000000000e+00
    RHS       _C423      0.000000000000e+00
    RHS       _C424      0.000000000000e+00
    RHS       _C425      0.000000000000e+00
    RHS       _C426      0.000000000000e+00
    RHS       _C427      0.000000000000e+00
    RHS       _C428      0.000000000000e+00
    RHS       _C429      0.000000000000e+00
    RHS       _C430      0.000000000000e+00
    RHS       _C431      0.000000000000e+00
    RHS       _C432      0.000000000000e+00
    RHS       _C433      0.000000000000e+00
    RHS       _C434      0.000000000000e+00
    RHS       _C435      0.000000000000e+00
    RHS       _C436      0.000000000000e+00
    RHS       _C437      0.000000000000e+00
    RHS       _C438      0.000000000000e+00
    RHS       _C439      0.000000000000e+00
    RHS       _C440      0.000000000000e+00
    RHS       _C441      0.000000000000e+00
    RHS       _C442      0.000000000000e+00
    RHS       _C443      0.000000000000e+00
    RHS       _C444      0.000000000000e+00
    RHS       _C445      0.000000000000e+00
    RHS       _C446      0.000000000000e+00
    RHS       _C447      0.000000000000e+00
    RHS       _C448      0.000000000000e+00
    RHS       _C449      0.000000000000e+00
    RHS       _C450      0.000000000000e+00
    RHS       _C451      0.000000000000e+00
    RHS       _C452      0.000000000000e+00
    RHS       _C453      0.000000000000e+00
    RHS       _C454      0.000000000000e+00
    RHS       _C455      0.000000000000e+00
    RHS       _C456      0.000000000000e+00
    RHS       _C457      0.000000000000e+00
    RHS       _C458      0.000000000000e+00
    RHS       _C459      0.000000000000e+00
    RHS       _C460      0.000000000000e+00
    RHS       _C461      0.000000000000e+00
    RHS       _C462      0.000000000000e+00
    RHS       _C463      0.000000000000e+00
    RHS       _C464      0.000000000000e+00
    RHS       _C465      0.000000000000e+00
    RHS       _C466      0.000000000000e+00
    RHS       _C467      0.000000000000e+00
    RHS       _C468      0.000000000000e+00
    RHS       _C469      0.000000000000e+00
    RHS       _C470      0.000000000000e+00
    RHS       _C471      0.000000000000e+00
    RHS       _C472      0.000000000000e+00
    RHS       _C473      0.000000000000e+00
    RHS       _C474      0.000000000000e+00
    RHS       _C475      0.000000000000e+00
    RHS       _C476      0.000000000000e+00
    RHS       _C477      0.000000000000e+00
    RHS       _C478      0.000000000000e+00
    RHS       _C479      0.000000000000e+00
    RHS       _C480      0.000000000000e+00
    RHS       _C481      0.000000000000e+00
    RHS       _C482      0.000000000000e+00
    RHS       _C483      0.000000000000e+00
    RHS       _C484      0.000000000000e+00
    RHS       _C485      0.000000000000e+00
    RHS       _C486      0.000000000000e+00
    RHS       _C487      0.000000000000e+00
    RHS       _C488      0.000000000000e+00
    RHS       _C489      0.000000000000e+00
    RHS       _C490      0.000000000000e+00
    RHS       _C491      0.000000000000e+00
    RHS       _C492      0.000000000000e+00
    RHS       _C493      0.000000000000e+00
    RHS       _C494      0.000000000000e+00
    RHS       _C495      0.000000000000e+00
    RHS       _C496      0.000000000000e+00
    RHS       _C497      0.000000000000e+00
    RHS       _C498      0.000000000000e+00
    RHS       _C499      0.000000000000e+00
    RHS       _C500      0.000000000000e+00
    RHS       _C501      0.000000000000e+00
    RHS       _C502      0.000000000000e+00
    RHS       _C503      0.000000000000e+00
    RHS       _C504      0.000000000000e+00
    RHS       _C505      0.000000000000e+00
    RHS       _C506      0.000000000000e+00
    RHS       _C507      0.000000000000e+00
    RHS       _C508      0.000000000000e+00
    RHS       _C509      0.000000000000e+00
    RHS       _C510      0.000000000000e+00
    RHS       _C511      0.000000000000e+00
    RHS       _C512      0.000000000000e+00
    RHS       _C513      0.000000000000e+00
    RHS       _C514      0.000000000000e+00
    RHS       _C515      0.000000000000e+00
    RHS       _C516      0.000000000000e+00
    RHS       _C517      0.000000000000e+00
    RHS       _C518      0.000000000000e+00
    RHS       _C519      0.000000000000e+00
    RHS       _C520      0.000000000000e+00
    RHS       _C521      0.000000000000e+00
    RHS       _C522      0.000000000000e+00
    RHS       _C523      0.000000000000e+00
    RHS       _C524      0.000000000000e+00
    RHS       _C525      0.000000000000e+00
    RHS       _C526      0.000000000000e+00
    RHS       _C527      0.000000000000e+00
    RHS       _C528      0.000000000000e+00
    RHS       _C529      0.000000000000e+00
    RHS       _C530      0.000000000000e+00
    RHS       _C531      0.000000000000e+00
    RHS       _C532      0.000000000000e+00
    RHS       _C533      0.000000000000e+00
    RHS       _C534      0.000000000000e+00
    RHS       _C535      0.000000000000e+00
    RHS       _C536      0.000000000000e+00
    RHS       _C537      0.000000000000e+00
    RHS       _C538      0.000000000000e+00
    RHS       _C539      0.000000000000e+00
    RHS       _C540      0.000000000000e+00
    RHS       _C541      0.000000000000e+00
    RHS       _C542      0.000000000000e+00
    RHS       _C543      0.000000000000e+00
    RHS       _C544      0.000000000000e+00
    RHS       _C545      0.000000000000e+00
    RHS       _C546      0.000000000000e+00
    RHS       _C547      0.000000000000e+00
    RHS       _C548      0.000000000000e+00
    RHS       _C549      0.000000000000e+00
    RHS       _C550      0.000000000000e+00
    RHS       _C551      0.000000000000e+00
    RHS       _C552      0.000000000000e+00
    RHS       _C553      0.000000000000e+00
    RHS       _C554      0.000000000000e+00
    RHS       _C555      0.000000000000e+00
    RHS       _C556      0.000000000000e+00
    RHS       _C557      0.000000000000e+00
    RHS       _C558      0.000000000000e+00
    RHS       _C559      0.000000000000e+00
    RHS       _C560      0.000000000000e+00
    RHS       _C561      0.000000000000e+00
    RHS       _C562      0.000000000000e+00
    RHS       _C563      0.000000000000e+00
    RHS       _C564      0.000000000000e+00
    RHS       _C565      0.000000000000e+00
    RHS       _C566      0.000000000000e+00
    RHS       _C567      0.000000000000e+00
    RHS       _C568      0.000000000000e+00
    RHS       _C569      0.000000000000e+00
    RHS       _C570      0.000000000000e+00
    RHS       _C571      0.000000000000e+00
    RHS       _C572      0.000000000000e+00
    RHS       _C573      0.000000000000e+00
    RHS       _C574      0.000000000000e+00
    RHS       _C575      0.000000000000e+00
    RHS       _C576      0.000000000000e+00
    RHS       _C577      0.000000000000e+00
    RHS       _C578      0.000000000000e+00
    RHS       _C579      0.000000000000e+00
    RHS       _C580      0.000000000000e+00
    RHS       _C581      0.000000000000e+00
    RHS       _C582      0.000000000000e+00
    RHS       _C583      0.000000000000e+00
    RHS       _C584      0.000000000000e+00
    RHS       _C585      0.000000000000e+00
    RHS       _C586      0.000000000000e+00
    RHS       _C587      0.000000000000e+00
    RHS       _C588      0.000000000000e+00
    RHS       _C589      0.000000000000e+00
    RHS       _C590      0.000000000000e+00
    RHS       _C591      0.000000000000e+00
    RHS       _C592      0.000000000000e+00
    RHS       _C593      0.000000000000e+00
    RHS       _C594      0.000000000000e+00
    RHS       _C595      0.000000000000e+00
    RHS       _C596      0.000000000000e+00
    RHS       _C597      0.000000000000e+00
    RHS       _C598      0.000000000000e+00
    RHS       _C599      0.000000000000e+00
    RHS       _C600      0.000000000000e+00
    RHS       _C601      0.000000000000e+00
    RHS       _C602      0.000000000000e+00
    RHS       _C603      0.000000000000e+00
    RHS       _C604      0.000000000000e+00
    RHS       _C605      0.000000000000e+00
    RHS       _C606      0.000000000000e+00
    RHS       _C607      0.000000000000e+00
    RHS       _C608      0.000000000000e+00
    RHS       _C609      0.000000000000e+00
    RHS       _C610      0.000000000000e+00
    RHS       _C611      0.000000000000e+00
    RHS       _C612      0.000000000000e+00
    RHS       _C613      0.000000000000e+00
    RHS       _C614      0.000000000000e+00
    RHS       _C615      0.000000000000e+00
    RHS       _C616      0.000000000000e+00
    RHS       _C617      0.000000000000e+00
    RHS       _C618      0.000000000000e+00
    RHS       _C619      0.000000000000e+00
    RHS       _C620      0.000000000000e+00
    RHS       _C621      0.000000000000e+00
    RHS       _C622      0.000000000000e+00
    RHS       _C623      0.000000000000e+00
    RHS       _C624      0.000000000000e+00
    RHS       _C625      0.000000000000e+00
    RHS       _C626      0.000000000000e+00
    RHS       _C627      0.000000000000e+00
    RHS       _C628      0.000000000000e+00
    RHS       _C629      0.000000000000e+00
    RHS       _C630      0.000000000000e+00
    RHS       _C631      0.000000000000e+00
    RHS       _C632      0.000000000000e+00
    RHS       _C633      0.000000000000e+00
    RHS       _C634      0.000000000000e+00
    RHS       _C635      0.000000000000e+00
    RHS       _C636      0.000000000000e+00
    RHS       _C637      0.000000000000e+00
    RHS       _C638      0.000000000000e+00
    RHS       _C639      0.000000000000e+00
    RHS       _C640      0.000000000000e+00
    RHS       _C641      0.000000000000e+00
    RHS       _C642      0.000000000000e+00
    RHS       _C643      0.000000000000e+00
    RHS       _C644      0.000000000000e+00
    RHS       _C645      0.000000000000e+00
    RHS       _C646      0.000000000000e+00
    RHS       _C647      0.000000000000e+00
    RHS       _C648      0.000000000000e+00
    RHS       _C649      0.000000000000e+00
    RHS       _C650      0.000000000000e+00
    RHS       _C651      0.000000000000e+00
    RHS       _C652      0.000000000000e+00
    RHS       _C653      0.000000000000e+00
    RHS       _C654      0.000000000000e+00
    RHS       _C655      0.000000000000e+00
    RHS       _C656      0.000000000000e+00
    RHS       _C657      0.000000000000e+00
    RHS       _C658      0.000000000000e+00
    RHS       _C659      0.000000000000e+00
    RHS       _C660      0.000000000000e+00
    RHS       _C661      0.000000000000e+00
    RHS       _C662      0.000000000000e+00
    RHS       _C663      0.000000000000e+00
    RHS       _C664      0.000000000000e+00
    RHS       _C665      0.000000000000e+00
    RHS       _C666      0.000000000000e+00
    RHS       _C667      0.000000000000e+00
    RHS       _C668      0.000000000000e+00
    RHS       _C669      0.000000000000e+00
    RHS       _C670      0.000000000000e+00
    RHS       _C671      0.000000000000e+00
    RHS       _C672      0.000000000000e+00
    RHS       _C673      0.000000000000e+00
    RHS       _C674      0.000000000000e+00
    RHS       _C675      0.000000000000e+00
    RHS       _C676      0.000000000000e+00
    RHS       _C677      0.000000000000e+00
    RHS       _C678      0.000000000000e+00
    RHS       _C679      0.000000000000e+00
    RHS       _C680      0.000000000000e+00
    RHS       _C681      0.000000000000e+00
    RHS       _C682      0.000000000000e+00
    RHS       _C683      0.000000000000e+00
    RHS       _C684      0.000000000000e+00
    RHS       _C685      0.000000000000e+00
    RHS       _C686      0.000000000000e+00
    RHS       _C687      0.000000000000e+00
    RHS       _C688      0.000000000000e+00
    RHS       _C689      0.000000000000e+00
    RHS       _C690      0.000000000000e+00
    RHS       _C691      0.000000000000e+00
    RHS       _C692      0.000000000000e+00
    RHS       _C693      0.000000000000e+00
    RHS       _C694      0.000000000000e+00
    RHS       _C695      0.000000000000e+00
    RHS       _C696      0.000000000000e+00
    RHS       _C697      0.000000000000e+00
    RHS       _C698      0.000000000000e+00
    RHS       _C699      0.000000000000e+00
    RHS       _C700      0.000000000000e+00
    RHS       _C701      0.000000000000e+00
    RHS       _C702      0.000000000000e+00
    RHS       _C703      0.000000000000e+00
    RHS       _C704      0.000000000000e+00
    RHS       _C705      0.000000000000e+00
    RHS       _C706      0.000000000000e+00
    RHS       _C707      0.000000000000e+00
    RHS       _C708      0.000000000000e+00
    RHS       _C709      0.000000000000e+00
    RHS       _C710      0.000000000000e+00
    RHS       _C711      0.000000000000e+00
    RHS       _C712      0.000000000000e+00
    RHS       _C713      0.000000000000e+00
    RHS       _C714      0.000000000000e+00
    RHS       _C715      0.000000000000e+00
    RHS       _C716      0.000000000000e+00
    RHS       _C717      0.000000000000e+00
    RHS       _C718      0.000000000000e+00
    RHS       _C719      0.000000000000e+00
    RHS       _C720      0.000000000000e+00
    RHS       _C721      0.000000000000e+00
    RHS       _C722      0.000000000000e+00
    RHS       _C723      0.000000000000e+00
    RHS       _C724      0.000000000000e+00
    RHS       _C725      0.000000000000e+00
    RHS       _C726      0.000000000000e+00
    RHS       _C727      0.000000000000e+00
    RHS       _C728      0.000000000000e+00
    RHS       _C729      0.000000000000e+00
    RHS       _C730      0.000000000000e+00
    RHS       _C731      0.000000000000e+00
    RHS       _C732      0.000000000000e+00
    RHS       _C733      0.000000000000e+00
    RHS       _C734      0.000000000000e+00
    RHS       _C735      0.000000000000e+00
    RHS       _C736      0.000000000000e+00
    RHS       _C737      0.000000000000e+00
    RHS       _C738      0.000000000000e+00
    RHS       _C739      0.000000000000e+00
    RHS       _C740      0.000000000000e+00
    RHS       _C741      0.000000000000e+00
    RHS       _C742      0.000000000000e+00
    RHS       _C743      0.000000000000e+00
    RHS       _C744      0.000000000000e+00
    RHS       _C745      0.000000000000e+00
    RHS       _C746      0.000000000000e+00
    RHS       _C747      0.000000000000e+00
    RHS       _C748      0.000000000000e+00
    RHS       _C749      0.000000000000e+00
    RHS       _C750      0.000000000000e+00
    RHS       _C751      0.000000000000e+00
    RHS       _C752      0.000000000000e+00
    RHS       _C753      0.000000000000e+00
    RHS       _C754      0.000000000000e+00
    RHS       _C755      0.000000000000e+00
    RHS       _C756      0.000000000000e+00
    RHS       _C757      0.000000000000e+00
    RHS       _C758      0.000000000000e+00
    RHS       _C759      0.000000000000e+00
    RHS       _C760      0.000000000000e+00
    RHS       _C761      0.000000000000e+00
    RHS       _C762      0.000000000000e+00
    RHS       _C763      0.000000000000e+00
    RHS       _C764      0.000000000000e+00
    RHS       _C765      0.000000000000e+00
    RHS       _C766      0.000000000000e+00
    RHS       _C767      0.000000000000e+00
    RHS       _C768      0.000000000000e+00
    RHS       _C769      0.000000000000e+00
    RHS       _C770      0.000000000000e+00
    RHS       _C771      0.000000000000e+00
    RHS       _C772      0.000000000000e+00
    RHS       _C773      0.000000000000e+00
    RHS       _C774      0.000000000000e+00
    RHS       _C775      0.000000000000e+00
    RHS       _C776      0.000000000000e+00
    RHS       _C777      0.000000000000e+00
    RHS       _C778      0.000000000000e+00
    RHS       _C779      0.000000000000e+00
    RHS       _C780      0.000000000000e+00
    RHS       _C781      0.000000000000e+00
    RHS       _C782      0.000000000000e+00
    RHS       _C783      0.000000000000e+00
    RHS       _C784      0.000000000000e+00
    RHS       _C785      0.000000000000e+00
    RHS       _C786      0.000000000000e+00
    RHS       _C787      0.000000000000e+00
    RHS       _C788      0.000000000000e+00
    RHS       _C789      0.000000000000e+00
    RHS       _C790      0.000000000000e+00
    RHS       _C791      0.000000000000e+00
    RHS       _C792      0.000000000000e+00
    RHS       _C793      0.000000000000e+00
    RHS       _C794      0.000000000000e+00
    RHS       _C795      0.000000000000e+00
    RHS       _C796      0.000000000000e+00
    RHS       _C797      0.000000000000e+00
    RHS       _C798      0.000000000000e+00
    RHS       _C799      0.000000000000e+00
    RHS       _C800      0.000000000000e+00
    RHS       _C801      0.000000000000e+00
    RHS       _C802      0.000000000000e+00
    RHS       _C803      0.000000000000e+00
    RHS       _C804      0.000000000000e+00
    RHS       _C805      0.000000000000e+00
    RHS       _C806      0.000000000000e+00
    RHS       _C807      0.000000000000e+00
    RHS       _C808      0.000000000000e+00
    RHS       _C809      0.000000000000e+00
    RHS       _C810      0.000000000000e+00
    RHS       _C811      0.000000000000e+00
    RHS       _C812      0.000000000000e+00
    RHS       _C813      0.000000000000e+00
    RHS       _C814      0.000000000000e+00
    RHS       _C815      0.000000000000e+00
    RHS       _C816      0.000000000000e+00
    RHS       _C817      0.000000000000e+00
    RHS       _C818      0.000000000000e+00
    RHS       _C819      0.000000000000e+00
    RHS       _C820      0.000000000000e+00
    RHS       _C821      0.000000000000e+00
    RHS       _C822      0.000000000000e+00
    RHS       _C823      0.000000000000e+00
    RHS       _C824      0.000000000000e+00
    RHS       _C825      0.000000000000e+00
    RHS       _C826      0.000000000000e+00
    RHS       _C827      0.000000000000e+00
    RHS       _C828      0.000000000000e+00
    RHS       _C829      0.000000000000e+00
    RHS       _C830      0.000000000000e+00
    RHS       _C831      0.000000000000e+00
    RHS       _C832      0.000000000000e+00
    RHS       _C833      0.000000000000e+00
    RHS       _C834      0.000000000000e+00
    RHS       _C835      0.000000000000e+00
    RHS       _C836      0.000000000000e+00
    RHS       _C837      0.000000000000e+00
    RHS       _C838      0.000000000000e+00
    RHS       _C839      0.000000000000e+00
    RHS       _C840      0.000000000000e+00
    RHS       _C841      0.000000000000e+00
    RHS       _C842      0.000000000000e+00
    RHS       _C843      0.000000000000e+00
    RHS       _C844      0.000000000000e+00
    RHS       _C845      0.000000000000e+00
    RHS       _C846      0.000000000000e+00
    RHS       _C847      0.000000000000e+00
    RHS       _C848      0.000000000000e+00
    RHS       _C849      0.000000000000e+00
    RHS       _C850      0.000000000000e+00
    RHS       _C851      0.000000000000e+00
    RHS       _C852      0.000000000000e+00
    RHS       _C853      0.000000000000e+00
    RHS       _C854      0.000000000000e+00
    RHS       _C855      0.000000000000e+00
    RHS       _C856      0.000000000000e+00
    RHS       _C857      0.000000000000e+00
    RHS       _C858      0.000000000000e+00
    RHS       _C859      0.000000000000e+00
    RHS       _C860      0.000000000000e+00
    RHS       _C861      0.000000000000e+00
    RHS       _C862      0.000000000000e+00
    RHS       _C863      0.000000000000e+00
    RHS       _C864      0.000000000000e+00
    RHS       _C865      0.000000000000e+00
    RHS       _C866      0.000000000000e+00
    RHS       _C867      0.000000000000e+00
    RHS       _C868      0.000000000000e+00
    RHS       _C869      0.000000000000e+00
    RHS       _C870      0.000000000000e+00
    RHS       _C871      0.000000000000e+00
    RHS       _C872      0.000000000000e+00
    RHS       _C873      0.000000000000e+00
    RHS       _C874      0.000000000000e+00
    RHS       _C875      0.000000000000e+00
    RHS       _C876      0.000000000000e+00
    RHS       _C877      0.000000000000e+00
    RHS       _C878      0.000000000000e+00
    RHS       _C879      0.000000000000e+00
    RHS       _C880      0.000000000000e+00
    RHS       _C881      0.000000000000e+00
    RHS       _C882      0.000000000000e+00
    RHS       _C883      0.000000000000e+00
    RHS       _C884      0.000000000000e+00
    RHS       _C885      0.000000000000e+00
    RHS       _C886      0.000000000000e+00
    RHS       _C887      0.000000000000e+00
    RHS       _C888      0.000000000000e+00
    RHS       _C889      0.000000000000e+00
    RHS       _C890      0.000000000000e+00
    RHS       _C891      0.000000000000e+00
    RHS       _C892      0.000000000000e+00
    RHS       _C893      0.000000000000e+00
    RHS       _C894      0.000000000000e+00
    RHS       _C895      0.000000000000e+00
    RHS       _C896      0.000000000000e+00
    RHS       _C897      0.000000000000e+00
    RHS       _C898      0.000000000000e+00
    RHS       _C899      0.000000000000e+00
    RHS       _C900      0.000000000000e+00
    RHS       _C901      0.000000000000e+00
    RHS       _C902      0.000000000000e+00
    RHS       _C903      0.000000000000e+00
    RHS       _C904      0.000000000000e+00
    RHS       _C905      0.000000000000e+00
    RHS       _C906      0.000000000000e+00
    RHS       _C907      0.000000000000e+00
    RHS       _C908      0.000000000000e+00
    RHS       _C909      0.000000000000e+00
    RHS       _C910      0.000000000000e+00
    RHS       _C911      0.000000000000e+00
    RHS       _C912      0.000000000000e+00
    RHS       _C913      0.000000000000e+00
    RHS       _C914      0.000000000000e+00
    RHS       _C915      0.000000000000e+00
    RHS       _C916      0.000000000000e+00
    RHS       _C917      0.000000000000e+00
    RHS       _C918      0.000000000000e+00
    RHS       _C919      0.000000000000e+00
    RHS       _C920      0.000000000000e+00
    RHS       _C921      0.000000000000e+00
    RHS       _C922      0.000000000000e+00
    RHS       _C923      0.000000000000e+00
    RHS       _C924      0.000000000000e+00
    RHS       _C925      0.000000000000e+00
    RHS       _C926      0.000000000000e+00
    RHS       _C927      0.000000000000e+00
    RHS       _C928      0.000000000000e+00
    RHS       _C929      0.000000000000e+00
    RHS       _C930      0.000000000000e+00
    RHS       _C931      0.000000000000e+00
    RHS       _C932      0.000000000000e+00
    RHS       _C933      0.000000000000e+00
    RHS       _C934      0.000000000000e+00
    RHS       _C935      0.000000000000e+00
    RHS       _C936      0.000000000000e+00
    RHS       _C937      0.000000000000e+00
    RHS       _C938      0.000000000000e+00
    RHS       _C939      0.000000000000e+00
    RHS       _C940      0.000000000000e+00
    RHS       _C941      0.000000000000e+00
    RHS       _C942      0.000000000000e+00
    RHS       _C943      0.000000000000e+00
    RHS       _C944      0.000000000000e+00
    RHS       _C945      0.000000000000e+00
    RHS       _C946      0.000000000000e+00
    RHS       _C947      0.000000000000e+00
    RHS       _C948      0.000000000000e+00
    RHS       _C949      0.000000000000e+00
    RHS       _C950      0.000000000000e+00
    RHS       _C951      0.000000000000e+00
    RHS       _C952      0.000000000000e+00
    RHS       _C953      0.000000000000e+00
    RHS       _C954      0.000000000000e+00
    RHS       _C955      0.000000000000e+00
    RHS       _C956      0.000000000000e+00
    RHS       _C957      0.000000000000e+00
    RHS       _C958      0.000000000000e+00
    RHS       _C959      0.000000000000e+00
    RHS       _C960      0.000000000000e+00
    RHS       _C961      0.000000000000e+00
    RHS       _C962      0.000000000000e+00
    RHS       _C963      0.000000000000e+00
    RHS       _C964      0.000000000000e+00
    RHS       _C965      0.000000000000e+00
    RHS       _C966      0.000000000000e+00
    RHS       _C967      0.000000000000e+00
    RHS       _C968      0.000000000000e+00
    RHS       _C969      0.000000000000e+00
    RHS       _C970      0.000000000000e+00
    RHS       _C971      0.000000000000e+00
    RHS       _C972      0.000000000000e+00
    RHS       _C973      0.000000000000e+00
    RHS       _C974      0.000000000000e+00
    RHS       _C975      0.000000000000e+00
    RHS       _C976      0.000000000000e+00
    RHS       _C977      0.000000000000e+00
    RHS       _C978      0.000000000000e+00
    RHS       _C979      0.000000000000e+00
    RHS       _C980      0.000000000000e+00
    RHS       _C981      0.000000000000e+00
    RHS       _C982      0.000000000000e+00
    RHS       _C983      0.000000000000e+00
    RHS       _C984      0.000000000000e+00
    RHS       _C985      0.000000000000e+00
    RHS       _C986      0.000000000000e+00
    RHS       _C987      0.000000000000e+00
    RHS       _C988      0.000000000000e+00
    RHS       _C989      0.000000000000e+00
    RHS       _C990      0.000000000000e+00
    RHS       _C991      0.000000000000e+00
    RHS       _C992      0.000000000000e+00
    RHS       _C993      0.000000000000e+00
    RHS       _C994      0.000000000000e+00
    RHS       _C995      0.000000000000e+00
    RHS       _C996      0.000000000000e+00
    RHS       _C997      0.000000000000e+00
    RHS       _C998      0.000000000000e+00
    RHS       _C999      0.000000000000e+00
    RHS       _C1000     0.000000000000e+00
    RHS       _C1001     0.000000000000e+00
    RHS       _C1002     0.000000000000e+00
    RHS       _C1003     0.000000000000e+00
    RHS       _C1004     0.000000000000e+00
    RHS       _C1005     0.000000000000e+00
    RHS       _C1006     0.000000000000e+00
    RHS       _C1007     0.000000000000e+00
    RHS       _C1008     0.000000000000e+00
    RHS       _C1009     0.000000000000e+00
    RHS       _C1010     0.000000000000e+00
    RHS       _C1011     0.000000000000e+00
    RHS       _C1012     0.000000000000e+00
    RHS       _C1013     0.000000000000e+00
    RHS       _C1014     0.000000000000e+00
    RHS       _C1015     0.000000000000e+00
    RHS       _C1016     0.000000000000e+00
    RHS       _C1017     0.000000000000e+00
    RHS       _C1018     0.000000000000e+00
    RHS       _C1019     0.000000000000e+00
    RHS       _C1020     0.000000000000e+00
    RHS       _C1021     0.000000000000e+00
    RHS       _C1022     0.000000000000e+00
    RHS       _C1023     0.000000000000e+00
    RHS       _C1024     0.000000000000e+00
    RHS       _C1025     0.000000000000e+00
    RHS       _C1026     0.000000000000e+00
    RHS       _C1027     0.000000000000e+00
    RHS       _C1028     0.000000000000e+00
    RHS       _C1029     0.000000000000e+00
    RHS       _C1030     0.000000000000e+00
    RHS       _C1031     0.000000000000e+00
    RHS       _C1032     0.000000000000e+00
    RHS       _C1033     0.000000000000e+00
    RHS       _C1034     0.000000000000e+00
    RHS       _C1035     0.000000000000e+00
    RHS       _C1036     0.000000000000e+00
    RHS       _C1037     0.000000000000e+00
    RHS       _C1038     0.000000000000e+00
    RHS       _C1039     0.000000000000e+00
    RHS       _C1040     0.000000000000e+00
    RHS       _C1041     0.000000000000e+00
    RHS       _C1042     0.000000000000e+00
    RHS       _C1043     0.000000000000e+00
    RHS       _C1044     0.000000000000e+00
    RHS       _C1045     0.000000000000e+00
    RHS       _C1046     0.000000000000e+00
    RHS       _C1047     0.000000000000e+00
    RHS       _C1048     0.000000000000e+00
    RHS       _C1049     0.000000000000e+00
    RHS       _C1050     0.000000000000e+00
    RHS       _C1051     0.000000000000e+00
    RHS       _C1052     0.000000000000e+00
    RHS       _C1053     0.000000000000e+00
    RHS       _C1054     0.000000000000e+00
    RHS       _C1055     0.000000000000e+00
    RHS       _C1056     0.000000000000e+00
    RHS       _C1057     0.000000000000e+00
    RHS       _C1058     0.000000000000e+00
    RHS       _C1059     0.000000000000e+00
    RHS       _C1060     0.000000000000e+00
    RHS       _C1061     0.000000000000e+00
    RHS       _C1062     0.000000000000e+00
    RHS       _C1063     0.000000000000e+00
    RHS       _C1064     0.000000000000e+00
    RHS       _C1065     0.000000000000e+00
    RHS       _C1066     0.000000000000e+00
    RHS       _C1067     0.000000000000e+00
    RHS       _C1068     0.000000000000e+00
    RHS       _C1069     0.000000000000e+00
    RHS       _C1070     0.000000000000e+00
    RHS       _C1071     0.000000000000e+00
    RHS       _C1072     0.000000000000e+00
    RHS       _C1073     0.000000000000e+00
    RHS       _C1074     0.000000000000e+00
    RHS       _C1075     0.000000000000e+00
    RHS       _C1076     0.000000000000e+00
    RHS       _C1077     0.000000000000e+00
    RHS       _C1078     0.000000000000e+00
    RHS       _C1079     0.000000000000e+00
    RHS       _C1080     0.000000000000e+00
    RHS       _C1081     0.000000000000e+00
    RHS       _C1082     0.000000000000e+00
    RHS       _C1083     0.000000000000e+00
    RHS       _C1084     0.000000000000e+00
    RHS       _C1085     0.000000000000e+00
    RHS       _C1086     0.000000000000e+00
    RHS       _C1087     0.000000000000e+00
    RHS       _C1088     0.000000000000e+00
    RHS       _C1089     0.000000000000e+00
    RHS       _C1090     0.000000000000e+00
    RHS       _C1091     0.000000000000e+00
    RHS       _C1092     0.000000000000e+00
    RHS       _C1093     0.000000000000e+00
    RHS       _C1094     0.000000000000e+00
    RHS       _C1095     0.000000000000e+00
    RHS       _C1096     0.000000000000e+00
    RHS       _C1097     0.000000000000e+00
    RHS       _C1098     0.000000000000e+00
    RHS       _C1099     0.000000000000e+00
    RHS       _C1100     0.000000000000e+00
    RHS       _C1101     0.000000000000e+00
    RHS       _C1102     0.000000000000e+00
    RHS       _C1103     0.000000000000e+00
    RHS       _C1104     0.000000000000e+00
    RHS       _C1105     0.000000000000e+00
    RHS       _C1106     0.000000000000e+00
    RHS       _C1107     0.000000000000e+00
    RHS       _C1108     0.000000000000e+00
    RHS       _C1109     0.000000000000e+00
    RHS       _C1110     0.000000000000e+00
    RHS       _C1111     0.000000000000e+00
    RHS       _C1112     0.000000000000e+00
    RHS       _C1113     0.000000000000e+00
    RHS       _C1114     0.000000000000e+00
    RHS       _C1115     0.000000000000e+00
    RHS       _C1116     0.000000000000e+00
    RHS       _C1117     0.000000000000e+00
    RHS       _C1118     0.000000000000e+00
    RHS       _C1119     0.000000000000e+00
    RHS       _C1120     0.000000000000e+00
    RHS       _C1121     0.000000000000e+00
    RHS       _C1122     0.000000000000e+00
    RHS       _C1123     0.000000000000e+00
    RHS       _C1124     0.000000000000e+00
    RHS       _C1125     0.000000000000e+00
    RHS       _C1126     0.000000000000e+00
    RHS       _C1127     0.000000000000e+00
    RHS       _C1128     0.000000000000e+00
    RHS       _C1129     0.000000000000e+00
    RHS       _C1130     0.000000000000e+00
    RHS       _C1131     0.000000000000e+00
    RHS       _C1132     0.000000000000e+00
    RHS       _C1133     0.000000000000e+00
    RHS       _C1134     0.000000000000e+00
    RHS       _C1135     0.000000000000e+00
    RHS       _C1136     0.000000000000e+00
    RHS       _C1137     0.000000000000e+00
    RHS       _C1138     0.000000000000e+00
    RHS       _C1139     0.000000000000e+00
    RHS       _C1140     0.000000000000e+00
    RHS       _C1141     0.000000000000e+00
    RHS       _C1142     0.000000000000e+00
    RHS       _C1143     0.000000000000e+00
    RHS       _C1144     0.000000000000e+00
    RHS       _C1145     0.000000000000e+00
    RHS       _C1146     0.000000000000e+00
    RHS       _C1147     0.000000000000e+00
    RHS       _C1148     0.000000000000e+00
    RHS       _C1149     0.000000000000e+00
    RHS       _C1150     0.000000000000e+00
    RHS       _C1151     0.000000000000e+00
    RHS       _C1152     0.000000000000e+00
    RHS       _C1153     0.000000000000e+00
    RHS       _C1154     0.000000000000e+00
    RHS       _C1155     0.000000000000e+00
    RHS       _C1156     0.000000000000e+00
    RHS       _C1157     0.000000000000e+00
    RHS       _C1158     0.000000000000e+00
    RHS       _C1159     0.000000000000e+00
    RHS       _C1160     0.000000000000e+00
    RHS       _C1161     0.000000000000e+00
    RHS       _C1162     0.000000000000e+00
    RHS       _C1163     0.000000000000e+00
    RHS       _C1164     0.000000000000e+00
    RHS       _C1165     0.000000000000e+00
    RHS       _C1166     0.000000000000e+00
    RHS       _C1167     0.000000000000e+00
    RHS       _C1168     0.000000000000e+00
    RHS       _C1169     0.000000000000e+00
    RHS       _C1170     0.000000000000e+00
    RHS       _C1171     0.000000000000e+00
    RHS       _C1172     0.000000000000e+00
    RHS       _C1173     0.000000000000e+00
    RHS       _C1174     0.000000000000e+00
    RHS       _C1175     0.000000000000e+00
    RHS       _C1176     0.000000000000e+00
    RHS       _C1177     0.000000000000e+00
    RHS       _C1178     0.000000000000e+00
    RHS       _C1179     0.000000000000e+00
    RHS       _C1180     0.000000000000e+00
    RHS       _C1181     0.000000000000e+00
    RHS       _C1182     0.000000000000e+00
    RHS       _C1183     0.000000000000e+00
    RHS       _C1184     0.000000000000e+00
    RHS       _C1185     0.000000000000e+00
    RHS       _C1186     0.000000000000e+00
    RHS       _C1187     0.000000000000e+00
    RHS       _C1188     0.000000000000e+00
    RHS       _C1189     0.000000000000e+00
    RHS       _C1190     0.000000000000e+00
    RHS       _C1191     0.000000000000e+00
    RHS       _C1192     0.000000000000e+00
    RHS       _C1193     0.000000000000e+00
    RHS       _C1194     0.000000000000e+00
    RHS       _C1195     0.000000000000e+00
    RHS       _C1196     0.000000000000e+00
    RHS       _C1197     0.000000000000e+00
    RHS       _C1198     0.000000000000e+00
    RHS       _C1199     0.000000000000e+00
    RHS       _C1200     0.000000000000e+00
    RHS       _C1201     0.000000000000e+00
    RHS       _C1202     0.000000000000e+00
    RHS       _C1203     0.000000000000e+00
    RHS       _C1204     0.000000000000e+00
    RHS       _C1205     0.000000000000e+00
    RHS       _C1206     0.000000000000e+00
    RHS       _C1207     0.000000000000e+00
    RHS       _C1208     0.000000000000e+00
    RHS       _C1209     0.000000000000e+00
    RHS       _C1210     0.000000000000e+00
    RHS       _C1211     0.000000000000e+00
    RHS       _C1212     0.000000000000e+00
    RHS       _C1213     0.000000000000e+00
    RHS       _C1214     0.000000000000e+00
    RHS       _C1215     0.000000000000e+00
    RHS       _C1216     0.000000000000e+00
    RHS       _C1217     0.000000000000e+00
    RHS       _C1218     0.000000000000e+00
    RHS       _C1219     0.000000000000e+00
    RHS       _C1220     0.000000000000e+00
    RHS       _C1221     0.000000000000e+00
    RHS       _C1222     0.000000000000e+00
    RHS       _C1223     0.000000000000e+00
    RHS       _C1224     0.000000000000e+00
    RHS       _C1225     0.000000000000e+00
    RHS       _C1226     0.000000000000e+00
    RHS       _C1227     0.000000000000e+00
    RHS       _C1228     0.000000000000e+00
    RHS       _C1229     0.000000000000e+00
    RHS       _C1230     0.000000000000e+00
    RHS       _C1231     0.000000000000e+00
    RHS       _C1232     0.000000000000e+00
    RHS       _C1233     0.000000000000e+00
    RHS       _C1234     0.000000000000e+00
    RHS       _C1235     0.000000000000e+00
    RHS       _C1236     0.000000000000e+00
    RHS       _C1237     0.000000000000e+00
    RHS       _C1238     0.000000000000e+00
    RHS       _C1239     0.000000000000e+00
    RHS       _C1240     0.000000000000e+00
    RHS       _C1241     0.000000000000e+00
    RHS       _C1242     0.000000000000e+00
    RHS       _C1243     0.000000000000e+00
    RHS       _C1244     0.000000000000e+00
    RHS       _C1245     0.000000000000e+00
    RHS       _C1246     0.000000000000e+00
    RHS       _C1247     0.000000000000e+00
    RHS       _C1248     0.000000000000e+00
    RHS       _C1249     0.000000000000e+00
    RHS       _C1250     0.000000000000e+00
    RHS       _C1251     0.000000000000e+00
    RHS       _C1252     0.000000000000e+00
    RHS       _C1253     0.000000000000e+00
    RHS       _C1254     0.000000000000e+00
    RHS       _C1255     0.000000000000e+00
    RHS       _C1256     0.000000000000e+00
    RHS       _C1257     0.000000000000e+00
    RHS       _C1258     0.000000000000e+00
    RHS       _C1259     0.000000000000e+00
    RHS       _C1260     0.000000000000e+00
    RHS       _C1261     0.000000000000e+00
    RHS       _C1262     0.000000000000e+00
    RHS       _C1263     0.000000000000e+00
    RHS       _C1264     0.000000000000e+00
    RHS       _C1265     0.000000000000e+00
    RHS       _C1266     0.000000000000e+00
    RHS       _C1267     0.000000000000e+00
    RHS       _C1268     0.000000000000e+00
    RHS       _C1269     0.000000000000e+00
    RHS       _C1270     0.000000000000e+00
    RHS       _C1271     0.000000000000e+00
    RHS       _C1272     0.000000000000e+00
    RHS       _C1273     0.000000000000e+00
    RHS       _C1274     0.000000000000e+00
    RHS       _C1275     0.000000000000e+00
    RHS       _C1276     0.000000000000e+00
    RHS       _C1277     0.000000000000e+00
    RHS       _C1278     0.000000000000e+00
    RHS       _C1279     0.000000000000e+00
    RHS       _C1280     0.000000000000e+00
    RHS       _C1281     0.000000000000e+00
    RHS       _C1282     0.000000000000e+00
    RHS       _C1283     0.000000000000e+00
    RHS       _C1284     0.000000000000e+00
    RHS       _C1285     0.000000000000e+00
    RHS       _C1286     0.000000000000e+00
    RHS       _C1287     0.000000000000e+00
    RHS       _C1288     0.000000000000e+00
    RHS       _C1289     0.000000000000e+00
    RHS       _C1290     0.000000000000e+00
    RHS       _C1291     0.000000000000e+00
    RHS       _C1292     0.000000000000e+00
    RHS       _C1293     0.000000000000e+00
    RHS       _C1294     0.000000000000e+00
    RHS       _C1295     0.000000000000e+00
    RHS       _C1296     0.000000000000e+00
    RHS       _C1297     0.000000000000e+00
    RHS       _C1298     0.000000000000e+00
    RHS       _C1299     0.000000000000e+00
    RHS       _C1300     0.000000000000e+00
    RHS       _C1301     0.000000000000e+00
    RHS       _C1302     0.000000000000e+00
    RHS       _C1303     0.000000000000e+00
    RHS       _C1304     0.000000000000e+00
    RHS       _C1305     0.000000000000e+00
    RHS       _C1306     0.000000000000e+00
    RHS       _C1307     0.000000000000e+00
    RHS       _C1308     0.000000000000e+00
    RHS       _C1309     0.000000000000e+00
    RHS       _C1310     0.000000000000e+00
    RHS       _C1311     0.000000000000e+00
    RHS       _C1312     0.000000000000e+00
    RHS       _C1313     0.000000000000e+00
    RHS       _C1314     0.000000000000e+00
    RHS       _C1315     0.000000000000e+00
    RHS       _C1316     0.000000000000e+00
    RHS       _C1317     0.000000000000e+00
    RHS       _C1318     0.000000000000e+00
    RHS       _C1319     0.000000000000e+00
    RHS       _C1320     0.000000000000e+00
    RHS       _C1321     0.000000000000e+00
    RHS       _C1322     0.000000000000e+00
    RHS       _C1323     0.000000000000e+00
    RHS       _C1324     0.000000000000e+00
    RHS       _C1325     0.000000000000e+00
    RHS       _C1326     0.000000000000e+00
    RHS       _C1327     0.000000000000e+00
    RHS       _C1328     0.000000000000e+00
    RHS       _C1329     0.000000000000e+00
    RHS       _C1330     0.000000000000e+00
    RHS       _C1331     0.000000000000e+00
    RHS       _C1332     0.000000000000e+00
    RHS       _C1333     0.000000000000e+00
    RHS       _C1334     0.000000000000e+00
    RHS       _C1335     0.000000000000e+00
    RHS       _C1336     0.000000000000e+00
    RHS       _C1337     0.000000000000e+00
    RHS       _C1338     0.000000000000e+00
    RHS       _C1339     0.000000000000e+00
    RHS       _C1340     0.000000000000e+00
    RHS       _C1341     0.000000000000e+00
    RHS       _C1342     0.000000000000e+00
    RHS       _C1343     0.000000000000e+00
    RHS       _C1344     0.000000000000e+00
    RHS       _C1345     0.000000000000e+00
    RHS       _C1346     0.000000000000e+00
    RHS       _C1347     0.000000000000e+00
    RHS       _C1348     0.000000000000e+00
    RHS       _C1349     0.000000000000e+00
    RHS       _C1350     0.000000000000e+00
    RHS       _C1351     0.000000000000e+00
    RHS       _C1352     0.000000000000e+00
    RHS       _C1353     0.000000000000e+00
    RHS       _C1354     0.000000000000e+00
    RHS       _C1355     0.000000000000e+00
    RHS       _C1356     0.000000000000e+00
    RHS       _C1357     0.000000000000e+00
    RHS       _C1358     0.000000000000e+00
    RHS       _C1359     0.000000000000e+00
    RHS       _C1360     0.000000000000e+00
    RHS       _C1361     0.000000000000e+00
    RHS       _C1362     0.000000000000e+00
    RHS       _C1363     0.000000000000e+00
    RHS       _C1364     0.000000000000e+00
    RHS       _C1365     0.000000000000e+00
    RHS       _C1366     0.000000000000e+00
    RHS       _C1367     0.000000000000e+00
    RHS       _C1368     0.000000000000e+00
    RHS       _C1369     0.000000000000e+00
    RHS       _C1370     0.000000000000e+00
    RHS       _C1371     0.000000000000e+00
    RHS       _C1372     0.000000000000e+00
    RHS       _C1373     0.000000000000e+00
    RHS       _C1374     0.000000000000e+00
    RHS       _C1375     0.000000000000e+00
    RHS       _C1376     0.000000000000e+00
    RHS       _C1377     0.000000000000e+00
    RHS       _C1378     0.000000000000e+00
    RHS       _C1379     0.000000000000e+00
    RHS       _C1380     0.000000000000e+00
    RHS       _C1381     0.000000000000e+00
    RHS       _C1382     0.000000000000e+00
    RHS       _C1383     0.000000000000e+00
    RHS       _C1384     0.000000000000e+00
    RHS       _C1385     0.000000000000e+00
    RHS       _C1386     0.000000000000e+00
    RHS       _C1387     0.000000000000e+00
    RHS       _C1388     0.000000000000e+00
    RHS       _C1389     0.000000000000e+00
    RHS       _C1390     0.000000000000e+00
    RHS       _C1391     0.000000000000e+00
    RHS       _C1392     0.000000000000e+00
    RHS       _C1393     0.000000000000e+00
    RHS       _C1394     0.000000000000e+00
    RHS       _C1395     0.000000000000e+00
    RHS       _C1396     0.000000000000e+00
    RHS       _C1397     0.000000000000e+00
    RHS       _C1398     0.000000000000e+00
    RHS       _C1399     0.000000000000e+00
    RHS       _C1400     0.000000000000e+00
    RHS       _C1401     0.000000000000e+00
    RHS       _C1402     0.000000000000e+00
    RHS       _C1403     0.000000000000e+00
    RHS       _C1404     0.000000000000e+00
    RHS       _C1405     0.000000000000e+00
    RHS       _C1406     0.000000000000e+00
    RHS       _C1407     0.000000000000e+00
    RHS       _C1408     0.000000000000e+00
    RHS       _C1409     0.000000000000e+00
    RHS       _C1410     0.000000000000e+00
    RHS       _C1411     0.000000000000e+00
    RHS       _C1412     0.000000000000e+00
    RHS       _C1413     0.000000000000e+00
    RHS       _C1414     0.000000000000e+00
    RHS       _C1415     0.000000000000e+00
    RHS       _C1416     0.000000000000e+00
    RHS       _C1417     0.000000000000e+00
    RHS       _C1418     0.000000000000e+00
    RHS       _C1419     0.000000000000e+00
    RHS       _C1420     0.000000000000e+00
    RHS       _C1421     0.000000000000e+00
    RHS       _C1422     0.000000000000e+00
    RHS       _C1423     0.000000000000e+00
    RHS       _C1424     0.000000000000e+00
    RHS       _C1425     0.000000000000e+00
    RHS       _C1426     0.000000000000e+00
    RHS       _C1427     0.000000000000e+00
    RHS       _C1428     0.000000000000e+00
    RHS       _C1429     0.000000000000e+00
    RHS       _C1430     0.000000000000e+00
    RHS       _C1431     0.000000000000e+00
    RHS       _C1432     0.000000000000e+00
    RHS       _C1433     0.000000000000e+00
    RHS       _C1434     0.000000000000e+00
    RHS       _C1435     0.000000000000e+00
    RHS       _C1436     0.000000000000e+00
    RHS       _C1437     0.000000000000e+00
    RHS       _C1438     0.000000000000e+00
    RHS       _C1439     0.000000000000e+00
    RHS       _C1440     0.000000000000e+00
    RHS       _C1441     0.000000000000e+00
    RHS       _C1442     0.000000000000e+00
    RHS       _C1443     0.000000000000e+00
    RHS       _C1444     0.000000000000e+00
    RHS       _C1445     0.000000000000e+00
    RHS       _C1446     0.000000000000e+00
    RHS       _C1447     0.000000000000e+00
    RHS       _C1448     0.000000000000e+00
    RHS       _C1449     0.000000000000e+00
    RHS       _C1450     0.000000000000e+00
    RHS       _C1451     0.000000000000e+00
    RHS       _C1452     0.000000000000e+00
    RHS       _C1453     0.000000000000e+00
    RHS       _C1454     0.000000000000e+00
    RHS       _C1455     0.000000000000e+00
    RHS       _C1456     0.000000000000e+00
    RHS       _C1457     0.000000000000e+00
    RHS       _C1458     0.000000000000e+00
    RHS       _C1459     0.000000000000e+00
    RHS       _C1460     0.000000000000e+00
    RHS       _C1461     0.000000000000e+00
    RHS       _C1462     0.000000000000e+00
    RHS       _C1463     0.000000000000e+00
    RHS       _C1464     0.000000000000e+00
    RHS       _C1465     0.000000000000e+00
    RHS       _C1466     0.000000000000e+00
    RHS       _C1467     0.000000000000e+00
    RHS       _C1468     0.000000000000e+00
    RHS       _C1469     0.000000000000e+00
    RHS       _C1470     0.000000000000e+00
    RHS       _C1471     0.000000000000e+00
    RHS       _C1472     0.000000000000e+00
    RHS       _C1473     0.000000000000e+00
    RHS       _C1474     0.000000000000e+00
    RHS       _C1475     0.000000000000e+00
    RHS       _C1476     0.000000000000e+00
    RHS       _C1477     0.000000000000e+00
    RHS       _C1478     0.000000000000e+00
    RHS       _C1479     0.000000000000e+00
    RHS       _C1480     0.000000000000e+00
    RHS       _C1481     0.000000000000e+00
    RHS       _C1482     0.000000000000e+00
    RHS       _C1483     0.000000000000e+00
    RHS       _C1484     0.000000000000e+00
    RHS       _C1485     0.000000000000e+00
    RHS       _C1486     0.000000000000e+00
    RHS       _C1487     0.000000000000e+00
    RHS       _C1488     0.000000000000e+00
    RHS       _C1489     0.000000000000e+00
    RHS       _C1490     0.000000000000e+00
    RHS       _C1491     0.000000000000e+00
    RHS       _C1492     0.000000000000e+00
    RHS       _C1493     0.000000000000e+00
    RHS       _C1494     0.000000000000e+00
    RHS       _C1495     0.000000000000e+00
    RHS       _C1496     0.000000000000e+00
    RHS       _C1497     0.000000000000e+00
    RHS       _C1498     0.000000000000e+00
    RHS       _C1499     0.000000000000e+00
    RHS       _C1500     0.000000000000e+00
    RHS       _C1501     0.000000000000e+00
    RHS       _C1502     0.000000000000e+00
    RHS       _C1503     0.000000000000e+00
    RHS       _C1504     0.000000000000e+00
    RHS       _C1505     0.000000000000e+00
    RHS       _C1506     0.000000000000e+00
    RHS       _C1507     0.000000000000e+00
    RHS       _C1508     0.000000000000e+00
    RHS       _C1509     0.000000000000e+00
    RHS       _C1510     0.000000000000e+00
    RHS       _C1511     0.000000000000e+00
    RHS       _C1512     0.000000000000e+00
    RHS       _C1513     0.000000000000e+00
    RHS       _C1514     0.000000000000e+00
    RHS       _C1515     0.000000000000e+00
    RHS       _C1516     0.000000000000e+00
    RHS       _C1517     0.000000000000e+00
    RHS       _C1518     0.000000000000e+00
    RHS       _C1519     0.000000000000e+00
    RHS       _C1520     0.000000000000e+00
    RHS       _C1521     0.000000000000e+00
    RHS       _C1522     0.000000000000e+00
    RHS       _C1523     0.000000000000e+00
    RHS       _C1524     0.000000000000e+00
    RHS       _C1525     0.000000000000e+00
    RHS       _C1526     0.000000000000e+00
    RHS       _C1527     0.000000000000e+00
    RHS       _C1528     0.000000000000e+00
    RHS       _C1529     0.000000000000e+00
    RHS       _C1530     0.000000000000e+00
    RHS       _C1531     0.000000000000e+00
    RHS       _C1532     0.000000000000e+00
    RHS       _C1533     1.000000000000e+01
BOUNDS
 BV BND       edgepairs_((0,_1),_(0,_1))
 BV BND       edgepairs_((0,_1),_(1,_2))
 BV BND       edgepairs_((0,_1),_(1,_3))
 BV BND       edgepairs_((0,_1),_(11,_12))
 BV BND       edgepairs_((0,_1),_(11,_18))
 BV BND       edgepairs_((0,_1),_(11,_23))
 BV BND       edgepairs_((0,_1),_(12,_13))
 BV BND       edgepairs_((0,_1),_(13,_14))
 BV BND       edgepairs_((0,_1),_(14,_15))
 BV BND       edgepairs_((0,_1),_(15,_16))
 BV BND       edgepairs_((0,_1),_(15,_17))
 BV BND       edgepairs_((0,_1),_(15,_18))
 BV BND       edgepairs_((0,_1),_(18,_19))
 BV BND       edgepairs_((0,_1),_(19,_21))
 BV BND       edgepairs_((0,_1),_(3,_4))
 BV BND       edgepairs_((0,_1),_(3,_9))
 BV BND       edgepairs_((0,_1),_(4,_5))
 BV BND       edgepairs_((0,_1),_(5,_21))
 BV BND       edgepairs_((0,_1),_(5,_6))
 BV BND       edgepairs_((0,_1),_(6,_11))
 BV BND       edgepairs_((0,_1),_(6,_7))
 BV BND       edgepairs_((0,_1),_(7,_9))
 BV BND       edgepairs_((0,_1),__1)
 BV BND       edgepairs_((1,_19),_(0,_1))
 BV BND       edgepairs_((1,_19),_(1,_2))
 BV BND       edgepairs_((1,_19),_(1,_3))
 BV BND       edgepairs_((1,_19),_(11,_12))
 BV BND       edgepairs_((1,_19),_(11,_18))
 BV BND       edgepairs_((1,_19),_(11,_23))
 BV BND       edgepairs_((1,_19),_(12,_13))
 BV BND       edgepairs_((1,_19),_(13,_14))
 BV BND       edgepairs_((1,_19),_(14,_15))
 BV BND       edgepairs_((1,_19),_(15,_16))
 BV BND       edgepairs_((1,_19),_(15,_17))
 BV BND       edgepairs_((1,_19),_(15,_18))
 BV BND       edgepairs_((1,_19),_(18,_19))
 BV BND       edgepairs_((1,_19),_(19,_21))
 BV BND       edgepairs_((1,_19),_(3,_4))
 BV BND       edgepairs_((1,_19),_(3,_9))
 BV BND       edgepairs_((1,_19),_(4,_5))
 BV BND       edgepairs_((1,_19),_(5,_21))
 BV BND       edgepairs_((1,_19),_(5,_6))
 BV BND       edgepairs_((1,_19),_(6,_11))
 BV BND       edgepairs_((1,_19),_(6,_7))
 BV BND       edgepairs_((1,_19),_(7,_9))
 BV BND       edgepairs_((1,_19),__1)
 BV BND       edgepairs_((1,_2),_(0,_1))
 BV BND       edgepairs_((1,_2),_(1,_2))
 BV BND       edgepairs_((1,_2),_(1,_3))
 BV BND       edgepairs_((1,_2),_(11,_12))
 BV BND       edgepairs_((1,_2),_(11,_18))
 BV BND       edgepairs_((1,_2),_(11,_23))
 BV BND       edgepairs_((1,_2),_(12,_13))
 BV BND       edgepairs_((1,_2),_(13,_14))
 BV BND       edgepairs_((1,_2),_(14,_15))
 BV BND       edgepairs_((1,_2),_(15,_16))
 BV BND       edgepairs_((1,_2),_(15,_17))
 BV BND       edgepairs_((1,_2),_(15,_18))
 BV BND       edgepairs_((1,_2),_(18,_19))
 BV BND       edgepairs_((1,_2),_(19,_21))
 BV BND       edgepairs_((1,_2),_(3,_4))
 BV BND       edgepairs_((1,_2),_(3,_9))
 BV BND       edgepairs_((1,_2),_(4,_5))
 BV BND       edgepairs_((1,_2),_(5,_21))
 BV BND       edgepairs_((1,_2),_(5,_6))
 BV BND       edgepairs_((1,_2),_(6,_11))
 BV BND       edgepairs_((1,_2),_(6,_7))
 BV BND       edgepairs_((1,_2),_(7,_9))
 BV BND       edgepairs_((1,_2),__1)
 BV BND       edgepairs_((1,_23),_(0,_1))
 BV BND       edgepairs_((1,_23),_(1,_2))
 BV BND       edgepairs_((1,_23),_(1,_3))
 BV BND       edgepairs_((1,_23),_(11,_12))
 BV BND       edgepairs_((1,_23),_(11,_18))
 BV BND       edgepairs_((1,_23),_(11,_23))
 BV BND       edgepairs_((1,_23),_(12,_13))
 BV BND       edgepairs_((1,_23),_(13,_14))
 BV BND       edgepairs_((1,_23),_(14,_15))
 BV BND       edgepairs_((1,_23),_(15,_16))
 BV BND       edgepairs_((1,_23),_(15,_17))
 BV BND       edgepairs_((1,_23),_(15,_18))
 BV BND       edgepairs_((1,_23),_(18,_19))
 BV BND       edgepairs_((1,_23),_(19,_21))
 BV BND       edgepairs_((1,_23),_(3,_4))
 BV BND       edgepairs_((1,_23),_(3,_9))
 BV BND       edgepairs_((1,_23),_(4,_5))
 BV BND       edgepairs_((1,_23),_(5,_21))
 BV BND       edgepairs_((1,_23),_(5,_6))
 BV BND       edgepairs_((1,_23),_(6,_11))
 BV BND       edgepairs_((1,_23),_(6,_7))
 BV BND       edgepairs_((1,_23),_(7,_9))
 BV BND       edgepairs_((1,_23),__1)
 BV BND       edgepairs_((11,_12),_(19,_20))
 BV BND       edgepairs_((11,_12),_(21,_22))
 BV BND       edgepairs_((11,_12),_(22,_23))
 BV BND       edgepairs_((11,_12),_(23,_24))
 BV BND       edgepairs_((11,_12),_(7,_8))
 BV BND       edgepairs_((11,_12),_(9,_10))
 BV BND       edgepairs_((11,_12),__1)
 BV BND       edgepairs_((11,_13),_(0,_1))
 BV BND       edgepairs_((11,_13),_(1,_2))
 BV BND       edgepairs_((11,_13),_(1,_3))
 BV BND       edgepairs_((11,_13),_(11,_12))
 BV BND       edgepairs_((11,_13),_(11,_18))
 BV BND       edgepairs_((11,_13),_(11,_23))
 BV BND       edgepairs_((11,_13),_(12,_13))
 BV BND       edgepairs_((11,_13),_(13,_14))
 BV BND       edgepairs_((11,_13),_(14,_15))
 BV BND       edgepairs_((11,_13),_(15,_16))
 BV BND       edgepairs_((11,_13),_(15,_17))
 BV BND       edgepairs_((11,_13),_(15,_18))
 BV BND       edgepairs_((11,_13),_(18,_19))
 BV BND       edgepairs_((11,_13),_(19,_21))
 BV BND       edgepairs_((11,_13),_(3,_4))
 BV BND       edgepairs_((11,_13),_(3,_9))
 BV BND       edgepairs_((11,_13),_(4,_5))
 BV BND       edgepairs_((11,_13),_(5,_21))
 BV BND       edgepairs_((11,_13),_(5,_6))
 BV BND       edgepairs_((11,_13),_(6,_11))
 BV BND       edgepairs_((11,_13),_(6,_7))
 BV BND       edgepairs_((11,_13),_(7,_9))
 BV BND       edgepairs_((11,_13),__1)
 BV BND       edgepairs_((11,_14),_(0,_1))
 BV BND       edgepairs_((11,_14),_(1,_2))
 BV BND       edgepairs_((11,_14),_(1,_3))
 BV BND       edgepairs_((11,_14),_(11,_12))
 BV BND       edgepairs_((11,_14),_(11,_18))
 BV BND       edgepairs_((11,_14),_(11,_23))
 BV BND       edgepairs_((11,_14),_(12,_13))
 BV BND       edgepairs_((11,_14),_(13,_14))
 BV BND       edgepairs_((11,_14),_(14,_15))
 BV BND       edgepairs_((11,_14),_(15,_16))
 BV BND       edgepairs_((11,_14),_(15,_17))
 BV BND       edgepairs_((11,_14),_(15,_18))
 BV BND       edgepairs_((11,_14),_(18,_19))
 BV BND       edgepairs_((11,_14),_(19,_21))
 BV BND       edgepairs_((11,_14),_(3,_4))
 BV BND       edgepairs_((11,_14),_(3,_9))
 BV BND       edgepairs_((11,_14),_(4,_5))
 BV BND       edgepairs_((11,_14),_(5,_21))
 BV BND       edgepairs_((11,_14),_(5,_6))
 BV BND       edgepairs_((11,_14),_(6,_11))
 BV BND       edgepairs_((11,_14),_(6,_7))
 BV BND       edgepairs_((11,_14),_(7,_9))
 BV BND       edgepairs_((11,_14),__1)
 BV BND       edgepairs_((14,_15),_(0,_1))
 BV BND       edgepairs_((14,_15),_(1,_2))
 BV BND       edgepairs_((14,_15),_(1,_3))
 BV BND       edgepairs_((14,_15),_(11,_12))
 BV BND       edgepairs_((14,_15),_(11,_18))
 BV BND       edgepairs_((14,_15),_(11,_23))
 BV BND       edgepairs_((14,_15),_(12,_13))
 BV BND       edgepairs_((14,_15),_(13,_14))
 BV BND       edgepairs_((14,_15),_(14,_15))
 BV BND       edgepairs_((14,_15),_(15,_16))
 BV BND       edgepairs_((14,_15),_(15,_17))
 BV BND       edgepairs_((14,_15),_(15,_18))
 BV BND       edgepairs_((14,_15),_(18,_19))
 BV BND       edgepairs_((14,_15),_(19,_21))
 BV BND       edgepairs_((14,_15),_(3,_4))
 BV BND       edgepairs_((14,_15),_(3,_9))
 BV BND       edgepairs_((14,_15),_(4,_5))
 BV BND       edgepairs_((14,_15),_(5,_21))
 BV BND       edgepairs_((14,_15),_(5,_6))
 BV BND       edgepairs_((14,_15),_(6,_11))
 BV BND       edgepairs_((14,_15),_(6,_7))
 BV BND       edgepairs_((14,_15),_(7,_9))
 BV BND       edgepairs_((14,_15),__1)
 BV BND       edgepairs_((15,_16),_(0,_1))
 BV BND       edgepairs_((15,_16),_(1,_2))
 BV BND       edgepairs_((15,_16),_(1,_3))
 BV BND       edgepairs_((15,_16),_(11,_12))
 BV BND       edgepairs_((15,_16),_(11,_18))
 BV BND       edgepairs_((15,_16),_(11,_23))
 BV BND       edgepairs_((15,_16),_(12,_13))
 BV BND       edgepairs_((15,_16),_(13,_14))
 BV BND       edgepairs_((15,_16),_(14,_15))
 BV BND       edgepairs_((15,_16),_(15,_16))
 BV BND       edgepairs_((15,_16),_(15,_17))
 BV BND       edgepairs_((15,_16),_(15,_18))
 BV BND       edgepairs_((15,_16),_(18,_19))
 BV BND       edgepairs_((15,_16),_(19,_21))
 BV BND       edgepairs_((15,_16),_(3,_4))
 BV BND       edgepairs_((15,_16),_(3,_9))
 BV BND       edgepairs_((15,_16),_(4,_5))
 BV BND       edgepairs_((15,_16),_(5,_21))
 BV BND       edgepairs_((15,_16),_(5,_6))
 BV BND       edgepairs_((15,_16),_(6,_11))
 BV BND       edgepairs_((15,_16),_(6,_7))
 BV BND       edgepairs_((15,_16),_(7,_9))
 BV BND       edgepairs_((15,_16),__1)
 BV BND       edgepairs_((16,_17),_(0,_1))
 BV BND       edgepairs_((16,_17),_(1,_2))
 BV BND       edgepairs_((16,_17),_(1,_3))
 BV BND       edgepairs_((16,_17),_(11,_12))
 BV BND       edgepairs_((16,_17),_(11,_18))
 BV BND       edgepairs_((16,_17),_(11,_23))
 BV BND       edgepairs_((16,_17),_(12,_13))
 BV BND       edgepairs_((16,_17),_(13,_14))
 BV BND       edgepairs_((16,_17),_(14,_15))
 BV BND       edgepairs_((16,_17),_(15,_16))
 BV BND       edgepairs_((16,_17),_(15,_17))
 BV BND       edgepairs_((16,_17),_(15,_18))
 BV BND       edgepairs_((16,_17),_(18,_19))
 BV BND       edgepairs_((16,_17),_(19,_21))
 BV BND       edgepairs_((16,_17),_(3,_4))
 BV BND       edgepairs_((16,_17),_(3,_9))
 BV BND       edgepairs_((16,_17),_(4,_5))
 BV BND       edgepairs_((16,_17),_(5,_21))
 BV BND       edgepairs_((16,_17),_(5,_6))
 BV BND       edgepairs_((16,_17),_(6,_11))
 BV BND       edgepairs_((16,_17),_(6,_7))
 BV BND       edgepairs_((16,_17),_(7,_9))
 BV BND       edgepairs_((16,_17),__1)
 BV BND       edgepairs_((17,_18),_(19,_20))
 BV BND       edgepairs_((17,_18),_(21,_22))
 BV BND       edgepairs_((17,_18),_(22,_23))
 BV BND       edgepairs_((17,_18),_(23,_24))
 BV BND       edgepairs_((17,_18),_(7,_8))
 BV BND       edgepairs_((17,_18),_(9,_10))
 BV BND       edgepairs_((17,_18),__1)
 BV BND       edgepairs_((17,_21),_(0,_1))
 BV BND       edgepairs_((17,_21),_(1,_2))
 BV BND       edgepairs_((17,_21),_(1,_3))
 BV BND       edgepairs_((17,_21),_(11,_12))
 BV BND       edgepairs_((17,_21),_(11,_18))
 BV BND       edgepairs_((17,_21),_(11,_23))
 BV BND       edgepairs_((17,_21),_(12,_13))
 BV BND       edgepairs_((17,_21),_(13,_14))
 BV BND       edgepairs_((17,_21),_(14,_15))
 BV BND       edgepairs_((17,_21),_(15,_16))
 BV BND       edgepairs_((17,_21),_(15,_17))
 BV BND       edgepairs_((17,_21),_(15,_18))
 BV BND       edgepairs_((17,_21),_(18,_19))
 BV BND       edgepairs_((17,_21),_(19,_21))
 BV BND       edgepairs_((17,_21),_(3,_4))
 BV BND       edgepairs_((17,_21),_(3,_9))
 BV BND       edgepairs_((17,_21),_(4,_5))
 BV BND       edgepairs_((17,_21),_(5,_21))
 BV BND       edgepairs_((17,_21),_(5,_6))
 BV BND       edgepairs_((17,_21),_(6,_11))
 BV BND       edgepairs_((17,_21),_(6,_7))
 BV BND       edgepairs_((17,_21),_(7,_9))
 BV BND       edgepairs_((17,_21),__1)
 BV BND       edgepairs_((18,_19),_(19,_20))
 BV BND       edgepairs_((18,_19),_(21,_22))
 BV BND       edgepairs_((18,_19),_(22,_23))
 BV BND       edgepairs_((18,_19),_(23,_24))
 BV BND       edgepairs_((18,_19),_(7,_8))
 BV BND       edgepairs_((18,_19),_(9,_10))
 BV BND       edgepairs_((18,_19),__1)
 BV BND       edgepairs_((19,_20),_(19,_20))
 BV BND       edgepairs_((19,_20),_(21,_22))
 BV BND       edgepairs_((19,_20),_(22,_23))
 BV BND       edgepairs_((19,_20),_(23,_24))
 BV BND       edgepairs_((19,_20),_(7,_8))
 BV BND       edgepairs_((19,_20),_(9,_10))
 BV BND       edgepairs_((19,_20),__1)
 BV BND       edgepairs_((2,_17),_(0,_1))
 BV BND       edgepairs_((2,_17),_(1,_2))
 BV BND       edgepairs_((2,_17),_(1,_3))
 BV BND       edgepairs_((2,_17),_(11,_12))
 BV BND       edgepairs_((2,_17),_(11,_18))
 BV BND       edgepairs_((2,_17),_(11,_23))
 BV BND       edgepairs_((2,_17),_(12,_13))
 BV BND       edgepairs_((2,_17),_(13,_14))
 BV BND       edgepairs_((2,_17),_(14,_15))
 BV BND       edgepairs_((2,_17),_(15,_16))
 BV BND       edgepairs_((2,_17),_(15,_17))
 BV BND       edgepairs_((2,_17),_(15,_18))
 BV BND       edgepairs_((2,_17),_(18,_19))
 BV BND       edgepairs_((2,_17),_(19,_21))
 BV BND       edgepairs_((2,_17),_(3,_4))
 BV BND       edgepairs_((2,_17),_(3,_9))
 BV BND       edgepairs_((2,_17),_(4,_5))
 BV BND       edgepairs_((2,_17),_(5,_21))
 BV BND       edgepairs_((2,_17),_(5,_6))
 BV BND       edgepairs_((2,_17),_(6,_11))
 BV BND       edgepairs_((2,_17),_(6,_7))
 BV BND       edgepairs_((2,_17),_(7,_9))
 BV BND       edgepairs_((2,_17),__1)
 BV BND       edgepairs_((2,_3),_(0,_1))
 BV BND       edgepairs_((2,_3),_(1,_2))
 BV BND       edgepairs_((2,_3),_(1,_3))
 BV BND       edgepairs_((2,_3),_(11,_12))
 BV BND       edgepairs_((2,_3),_(11,_18))
 BV BND       edgepairs_((2,_3),_(11,_23))
 BV BND       edgepairs_((2,_3),_(12,_13))
 BV BND       edgepairs_((2,_3),_(13,_14))
 BV BND       edgepairs_((2,_3),_(14,_15))
 BV BND       edgepairs_((2,_3),_(15,_16))
 BV BND       edgepairs_((2,_3),_(15,_17))
 BV BND       edgepairs_((2,_3),_(15,_18))
 BV BND       edgepairs_((2,_3),_(18,_19))
 BV BND       edgepairs_((2,_3),_(19,_21))
 BV BND       edgepairs_((2,_3),_(3,_4))
 BV BND       edgepairs_((2,_3),_(3,_9))
 BV BND       edgepairs_((2,_3),_(4,_5))
 BV BND       edgepairs_((2,_3),_(5,_21))
 BV BND       edgepairs_((2,_3),_(5,_6))
 BV BND       edgepairs_((2,_3),_(6,_11))
 BV BND       edgepairs_((2,_3),_(6,_7))
 BV BND       edgepairs_((2,_3),_(7,_9))
 BV BND       edgepairs_((2,_3),__1)
 BV BND       edgepairs_((21,_22),_(0,_1))
 BV BND       edgepairs_((21,_22),_(1,_2))
 BV BND       edgepairs_((21,_22),_(1,_3))
 BV BND       edgepairs_((21,_22),_(11,_12))
 BV BND       edgepairs_((21,_22),_(11,_18))
 BV BND       edgepairs_((21,_22),_(11,_23))
 BV BND       edgepairs_((21,_22),_(12,_13))
 BV BND       edgepairs_((21,_22),_(13,_14))
 BV BND       edgepairs_((21,_22),_(14,_15))
 BV BND       edgepairs_((21,_22),_(15,_16))
 BV BND       edgepairs_((21,_22),_(15,_17))
 BV BND       edgepairs_((21,_22),_(15,_18))
 BV BND       edgepairs_((21,_22),_(18,_19))
 BV BND       edgepairs_((21,_22),_(19,_21))
 BV BND       edgepairs_((21,_22),_(3,_4))
 BV BND       edgepairs_((21,_22),_(3,_9))
 BV BND       edgepairs_((21,_22),_(4,_5))
 BV BND       edgepairs_((21,_22),_(5,_21))
 BV BND       edgepairs_((21,_22),_(5,_6))
 BV BND       edgepairs_((21,_22),_(6,_11))
 BV BND       edgepairs_((21,_22),_(6,_7))
 BV BND       edgepairs_((21,_22),_(7,_9))
 BV BND       edgepairs_((21,_22),__1)
 BV BND       edgepairs_((22,_23),_(0,_1))
 BV BND       edgepairs_((22,_23),_(1,_2))
 BV BND       edgepairs_((22,_23),_(1,_3))
 BV BND       edgepairs_((22,_23),_(11,_12))
 BV BND       edgepairs_((22,_23),_(11,_18))
 BV BND       edgepairs_((22,_23),_(11,_23))
 BV BND       edgepairs_((22,_23),_(12,_13))
 BV BND       edgepairs_((22,_23),_(13,_14))
 BV BND       edgepairs_((22,_23),_(14,_15))
 BV BND       edgepairs_((22,_23),_(15,_16))
 BV BND       edgepairs_((22,_23),_(15,_17))
 BV BND       edgepairs_((22,_23),_(15,_18))
 BV BND       edgepairs_((22,_23),_(18,_19))
 BV BND       edgepairs_((22,_23),_(19,_21))
 BV BND       edgepairs_((22,_23),_(3,_4))
 BV BND       edgepairs_((22,_23),_(3,_9))
 BV BND       edgepairs_((22,_23),_(4,_5))
 BV BND       edgepairs_((22,_23),_(5,_21))
 BV BND       edgepairs_((22,_23),_(5,_6))
 BV BND       edgepairs_((22,_23),_(6,_11))
 BV BND       edgepairs_((22,_23),_(6,_7))
 BV BND       edgepairs_((22,_23),_(7,_9))
 BV BND       edgepairs_((22,_23),__1)
 BV BND       edgepairs_((23,_24),_(19,_20))
 BV BND       edgepairs_((23,_24),_(21,_22))
 BV BND       edgepairs_((23,_24),_(22,_23))
 BV BND       edgepairs_((23,_24),_(23,_24))
 BV BND       edgepairs_((23,_24),_(7,_8))
 BV BND       edgepairs_((23,_24),_(9,_10))
 BV BND       edgepairs_((23,_24),__1)
 BV BND       edgepairs_((3,_4),_(0,_1))
 BV BND       edgepairs_((3,_4),_(1,_2))
 BV BND       edgepairs_((3,_4),_(1,_3))
 BV BND       edgepairs_((3,_4),_(11,_12))
 BV BND       edgepairs_((3,_4),_(11,_18))
 BV BND       edgepairs_((3,_4),_(11,_23))
 BV BND       edgepairs_((3,_4),_(12,_13))
 BV BND       edgepairs_((3,_4),_(13,_14))
 BV BND       edgepairs_((3,_4),_(14,_15))
 BV BND       edgepairs_((3,_4),_(15,_16))
 BV BND       edgepairs_((3,_4),_(15,_17))
 BV BND       edgepairs_((3,_4),_(15,_18))
 BV BND       edgepairs_((3,_4),_(18,_19))
 BV BND       edgepairs_((3,_4),_(19,_21))
 BV BND       edgepairs_((3,_4),_(3,_4))
 BV BND       edgepairs_((3,_4),_(3,_9))
 BV BND       edgepairs_((3,_4),_(4,_5))
 BV BND       edgepairs_((3,_4),_(5,_21))
 BV BND       edgepairs_((3,_4),_(5,_6))
 BV BND       edgepairs_((3,_4),_(6,_11))
 BV BND       edgepairs_((3,_4),_(6,_7))
 BV BND       edgepairs_((3,_4),_(7,_9))
 BV BND       edgepairs_((3,_4),__1)
 BV BND       edgepairs_((3,_7),_(0,_1))
 BV BND       edgepairs_((3,_7),_(1,_2))
 BV BND       edgepairs_((3,_7),_(1,_3))
 BV BND       edgepairs_((3,_7),_(11,_12))
 BV BND       edgepairs_((3,_7),_(11,_18))
 BV BND       edgepairs_((3,_7),_(11,_23))
 BV BND       edgepairs_((3,_7),_(12,_13))
 BV BND       edgepairs_((3,_7),_(13,_14))
 BV BND       edgepairs_((3,_7),_(14,_15))
 BV BND       edgepairs_((3,_7),_(15,_16))
 BV BND       edgepairs_((3,_7),_(15,_17))
 BV BND       edgepairs_((3,_7),_(15,_18))
 BV BND       edgepairs_((3,_7),_(18,_19))
 BV BND       edgepairs_((3,_7),_(19,_21))
 BV BND       edgepairs_((3,_7),_(3,_4))
 BV BND       edgepairs_((3,_7),_(3,_9))
 BV BND       edgepairs_((3,_7),_(4,_5))
 BV BND       edgepairs_((3,_7),_(5,_21))
 BV BND       edgepairs_((3,_7),_(5,_6))
 BV BND       edgepairs_((3,_7),_(6,_11))
 BV BND       edgepairs_((3,_7),_(6,_7))
 BV BND       edgepairs_((3,_7),_(7,_9))
 BV BND       edgepairs_((3,_7),__1)
 BV BND       edgepairs_((4,_5),_(19,_20))
 BV BND       edgepairs_((4,_5),_(21,_22))
 BV BND       edgepairs_((4,_5),_(22,_23))
 BV BND       edgepairs_((4,_5),_(23,_24))
 BV BND       edgepairs_((4,_5),_(7,_8))
 BV BND       edgepairs_((4,_5),_(9,_10))
 BV BND       edgepairs_((4,_5),__1)
 BV BND       edgepairs_((4,_6),_(19,_20))
 BV BND       edgepairs_((4,_6),_(21,_22))
 BV BND       edgepairs_((4,_6),_(22,_23))
 BV BND       edgepairs_((4,_6),_(23,_24))
 BV BND       edgepairs_((4,_6),_(7,_8))
 BV BND       edgepairs_((4,_6),_(9,_10))
 BV BND       edgepairs_((4,_6),__1)
 BV BND       edgepairs_((7,_13),_(0,_1))
 BV BND       edgepairs_((7,_13),_(1,_2))
 BV BND       edgepairs_((7,_13),_(1,_3))
 BV BND       edgepairs_((7,_13),_(11,_12))
 BV BND       edgepairs_((7,_13),_(11,_18))
 BV BND       edgepairs_((7,_13),_(11,_23))
 BV BND       edgepairs_((7,_13),_(12,_13))
 BV BND       edgepairs_((7,_13),_(13,_14))
 BV BND       edgepairs_((7,_13),_(14,_15))
 BV BND       edgepairs_((7,_13),_(15,_16))
 BV BND       edgepairs_((7,_13),_(15,_17))
 BV BND       edgepairs_((7,_13),_(15,_18))
 BV BND       edgepairs_((7,_13),_(18,_19))
 BV BND       edgepairs_((7,_13),_(19,_21))
 BV BND       edgepairs_((7,_13),_(3,_4))
 BV BND       edgepairs_((7,_13),_(3,_9))
 BV BND       edgepairs_((7,_13),_(4,_5))
 BV BND       edgepairs_((7,_13),_(5,_21))
 BV BND       edgepairs_((7,_13),_(5,_6))
 BV BND       edgepairs_((7,_13),_(6,_11))
 BV BND       edgepairs_((7,_13),_(6,_7))
 BV BND       edgepairs_((7,_13),_(7,_9))
 BV BND       edgepairs_((7,_13),__1)
 BV BND       edgepairs_((7,_16),_(0,_1))
 BV BND       edgepairs_((7,_16),_(1,_2))
 BV BND       edgepairs_((7,_16),_(1,_3))
 BV BND       edgepairs_((7,_16),_(11,_12))
 BV BND       edgepairs_((7,_16),_(11,_18))
 BV BND       edgepairs_((7,_16),_(11,_23))
 BV BND       edgepairs_((7,_16),_(12,_13))
 BV BND       edgepairs_((7,_16),_(13,_14))
 BV BND       edgepairs_((7,_16),_(14,_15))
 BV BND       edgepairs_((7,_16),_(15,_16))
 BV BND       edgepairs_((7,_16),_(15,_17))
 BV BND       edgepairs_((7,_16),_(15,_18))
 BV BND       edgepairs_((7,_16),_(18,_19))
 BV BND       edgepairs_((7,_16),_(19,_21))
 BV BND       edgepairs_((7,_16),_(3,_4))
 BV BND       edgepairs_((7,_16),_(3,_9))
 BV BND       edgepairs_((7,_16),_(4,_5))
 BV BND       edgepairs_((7,_16),_(5,_21))
 BV BND       edgepairs_((7,_16),_(5,_6))
 BV BND       edgepairs_((7,_16),_(6,_11))
 BV BND       edgepairs_((7,_16),_(6,_7))
 BV BND       edgepairs_((7,_16),_(7,_9))
 BV BND       edgepairs_((7,_16),__1)
 BV BND       edgepairs_((7,_8),_(0,_1))
 BV BND       edgepairs_((7,_8),_(1,_2))
 BV BND       edgepairs_((7,_8),_(1,_3))
 BV BND       edgepairs_((7,_8),_(11,_12))
 BV BND       edgepairs_((7,_8),_(11,_18))
 BV BND       edgepairs_((7,_8),_(11,_23))
 BV BND       edgepairs_((7,_8),_(12,_13))
 BV BND       edgepairs_((7,_8),_(13,_14))
 BV BND       edgepairs_((7,_8),_(14,_15))
 BV BND       edgepairs_((7,_8),_(15,_16))
 BV BND       edgepairs_((7,_8),_(15,_17))
 BV BND       edgepairs_((7,_8),_(15,_18))
 BV BND       edgepairs_((7,_8),_(18,_19))
 BV BND       edgepairs_((7,_8),_(19,_21))
 BV BND       edgepairs_((7,_8),_(3,_4))
 BV BND       edgepairs_((7,_8),_(3,_9))
 BV BND       edgepairs_((7,_8),_(4,_5))
 BV BND       edgepairs_((7,_8),_(5,_21))
 BV BND       edgepairs_((7,_8),_(5,_6))
 BV BND       edgepairs_((7,_8),_(6,_11))
 BV BND       edgepairs_((7,_8),_(6,_7))
 BV BND       edgepairs_((7,_8),_(7,_9))
 BV BND       edgepairs_((7,_8),__1)
 BV BND       edgepairs_((8,_9),_(0,_1))
 BV BND       edgepairs_((8,_9),_(1,_2))
 BV BND       edgepairs_((8,_9),_(1,_3))
 BV BND       edgepairs_((8,_9),_(11,_12))
 BV BND       edgepairs_((8,_9),_(11,_18))
 BV BND       edgepairs_((8,_9),_(11,_23))
 BV BND       edgepairs_((8,_9),_(12,_13))
 BV BND       edgepairs_((8,_9),_(13,_14))
 BV BND       edgepairs_((8,_9),_(14,_15))
 BV BND       edgepairs_((8,_9),_(15,_16))
 BV BND       edgepairs_((8,_9),_(15,_17))
 BV BND       edgepairs_((8,_9),_(15,_18))
 BV BND       edgepairs_((8,_9),_(18,_19))
 BV BND       edgepairs_((8,_9),_(19,_21))
 BV BND       edgepairs_((8,_9),_(3,_4))
 BV BND       edgepairs_((8,_9),_(3,_9))
 BV BND       edgepairs_((8,_9),_(4,_5))
 BV BND       edgepairs_((8,_9),_(5,_21))
 BV BND       edgepairs_((8,_9),_(5,_6))
 BV BND       edgepairs_((8,_9),_(6,_11))
 BV BND       edgepairs_((8,_9),_(6,_7))
 BV BND       edgepairs_((8,_9),_(7,_9))
 BV BND       edgepairs_((8,_9),__1)
 BV BND       edgepairs_((9,_10),_(0,_1))
 BV BND       edgepairs_((9,_10),_(1,_2))
 BV BND       edgepairs_((9,_10),_(1,_3))
 BV BND       edgepairs_((9,_10),_(11,_12))
 BV BND       edgepairs_((9,_10),_(11,_18))
 BV BND       edgepairs_((9,_10),_(11,_23))
 BV BND       edgepairs_((9,_10),_(12,_13))
 BV BND       edgepairs_((9,_10),_(13,_14))
 BV BND       edgepairs_((9,_10),_(14,_15))
 BV BND       edgepairs_((9,_10),_(15,_16))
 BV BND       edgepairs_((9,_10),_(15,_17))
 BV BND       edgepairs_((9,_10),_(15,_18))
 BV BND       edgepairs_((9,_10),_(18,_19))
 BV BND       edgepairs_((9,_10),_(19,_21))
 BV BND       edgepairs_((9,_10),_(3,_4))
 BV BND       edgepairs_((9,_10),_(3,_9))
 BV BND       edgepairs_((9,_10),_(4,_5))
 BV BND       edgepairs_((9,_10),_(5,_21))
 BV BND       edgepairs_((9,_10),_(5,_6))
 BV BND       edgepairs_((9,_10),_(6,_11))
 BV BND       edgepairs_((9,_10),_(6,_7))
 BV BND       edgepairs_((9,_10),_(7,_9))
 BV BND       edgepairs_((9,_10),__1)
 BV BND       edgepairs_((9,_11),_(0,_1))
 BV BND       edgepairs_((9,_11),_(1,_2))
 BV BND       edgepairs_((9,_11),_(1,_3))
 BV BND       edgepairs_((9,_11),_(11,_12))
 BV BND       edgepairs_((9,_11),_(11,_18))
 BV BND       edgepairs_((9,_11),_(11,_23))
 BV BND       edgepairs_((9,_11),_(12,_13))
 BV BND       edgepairs_((9,_11),_(13,_14))
 BV BND       edgepairs_((9,_11),_(14,_15))
 BV BND       edgepairs_((9,_11),_(15,_16))
 BV BND       edgepairs_((9,_11),_(15,_17))
 BV BND       edgepairs_((9,_11),_(15,_18))
 BV BND       edgepairs_((9,_11),_(18,_19))
 BV BND       edgepairs_((9,_11),_(19,_21))
 BV BND       edgepairs_((9,_11),_(3,_4))
 BV BND       edgepairs_((9,_11),_(3,_9))
 BV BND       edgepairs_((9,_11),_(4,_5))
 BV BND       edgepairs_((9,_11),_(5,_21))
 BV BND       edgepairs_((9,_11),_(5,_6))
 BV BND       edgepairs_((9,_11),_(6,_11))
 BV BND       edgepairs_((9,_11),_(6,_7))
 BV BND       edgepairs_((9,_11),_(7,_9))
 BV BND       edgepairs_((9,_11),__1)
 BV BND       edgepairs_(_1,_(0,_1))
 BV BND       edgepairs_(_1,_(1,_2))
 BV BND       edgepairs_(_1,_(1,_3))
 BV BND       edgepairs_(_1,_(11,_12))
 BV BND       edgepairs_(_1,_(11,_18))
 BV BND       edgepairs_(_1,_(11,_23))
 BV BND       edgepairs_(_1,_(12,_13))
 BV BND       edgepairs_(_1,_(13,_14))
 BV BND       edgepairs_(_1,_(14,_15))
 BV BND       edgepairs_(_1,_(15,_16))
 BV BND       edgepairs_(_1,_(15,_17))
 BV BND       edgepairs_(_1,_(15,_18))
 BV BND       edgepairs_(_1,_(18,_19))
 BV BND       edgepairs_(_1,_(19,_20))
 BV BND       edgepairs_(_1,_(19,_21))
 BV BND       edgepairs_(_1,_(21,_22))
 BV BND       edgepairs_(_1,_(22,_23))
 BV BND       edgepairs_(_1,_(23,_24))
 BV BND       edgepairs_(_1,_(3,_4))
 BV BND       edgepairs_(_1,_(3,_9))
 BV BND       edgepairs_(_1,_(4,_5))
 BV BND       edgepairs_(_1,_(5,_21))
 BV BND       edgepairs_(_1,_(5,_6))
 BV BND       edgepairs_(_1,_(6,_11))
 BV BND       edgepairs_(_1,_(6,_7))
 BV BND       edgepairs_(_1,_(7,_8))
 BV BND       edgepairs_(_1,_(7,_9))
 BV BND       edgepairs_(_1,_(9,_10))
 BV BND       nodepairs_(0,_0)
 BV BND       nodepairs_(0,_1)
 BV BND       nodepairs_(0,_11)
 BV BND       nodepairs_(0,_12)
 BV BND       nodepairs_(0,_13)
 BV BND       nodepairs_(0,_14)
 BV BND       nodepairs_(0,_15)
 BV BND       nodepairs_(0,_16)
 BV BND       nodepairs_(0,_17)
 BV BND       nodepairs_(0,_18)
 BV BND       nodepairs_(0,_19)
 BV BND       nodepairs_(0,_2)
 BV BND       nodepairs_(0,_21)
 BV BND       nodepairs_(0,_23)
 BV BND       nodepairs_(0,_3)
 BV BND       nodepairs_(0,_4)
 BV BND       nodepairs_(0,_5)
 BV BND       nodepairs_(0,_6)
 BV BND       nodepairs_(0,_7)
 BV BND       nodepairs_(0,_9)
 BV BND       nodepairs_(1,_0)
 BV BND       nodepairs_(1,_1)
 BV BND       nodepairs_(1,_11)
 BV BND       nodepairs_(1,_12)
 BV BND       nodepairs_(1,_13)
 BV BND       nodepairs_(1,_14)
 BV BND       nodepairs_(1,_15)
 BV BND       nodepairs_(1,_16)
 BV BND       nodepairs_(1,_17)
 BV BND       nodepairs_(1,_18)
 BV BND       nodepairs_(1,_19)
 BV BND       nodepairs_(1,_2)
 BV BND       nodepairs_(1,_21)
 BV BND       nodepairs_(1,_23)
 BV BND       nodepairs_(1,_3)
 BV BND       nodepairs_(1,_4)
 BV BND       nodepairs_(1,_5)
 BV BND       nodepairs_(1,_6)
 BV BND       nodepairs_(1,_7)
 BV BND       nodepairs_(1,_9)
 BV BND       nodepairs_(10,_0)
 BV BND       nodepairs_(10,_1)
 BV BND       nodepairs_(10,_11)
 BV BND       nodepairs_(10,_12)
 BV BND       nodepairs_(10,_13)
 BV BND       nodepairs_(10,_14)
 BV BND       nodepairs_(10,_15)
 BV BND       nodepairs_(10,_16)
 BV BND       nodepairs_(10,_17)
 BV BND       nodepairs_(10,_18)
 BV BND       nodepairs_(10,_19)
 BV BND       nodepairs_(10,_2)
 BV BND       nodepairs_(10,_21)
 BV BND       nodepairs_(10,_23)
 BV BND       nodepairs_(10,_3)
 BV BND       nodepairs_(10,_4)
 BV BND       nodepairs_(10,_5)
 BV BND       nodepairs_(10,_6)
 BV BND       nodepairs_(10,_7)
 BV BND       nodepairs_(10,_9)
 BV BND       nodepairs_(11,_0)
 BV BND       nodepairs_(11,_1)
 BV BND       nodepairs_(11,_11)
 BV BND       nodepairs_(11,_12)
 BV BND       nodepairs_(11,_13)
 BV BND       nodepairs_(11,_14)
 BV BND       nodepairs_(11,_15)
 BV BND       nodepairs_(11,_16)
 BV BND       nodepairs_(11,_17)
 BV BND       nodepairs_(11,_18)
 BV BND       nodepairs_(11,_19)
 BV BND       nodepairs_(11,_2)
 BV BND       nodepairs_(11,_21)
 BV BND       nodepairs_(11,_23)
 BV BND       nodepairs_(11,_3)
 BV BND       nodepairs_(11,_4)
 BV BND       nodepairs_(11,_5)
 BV BND       nodepairs_(11,_6)
 BV BND       nodepairs_(11,_7)
 BV BND       nodepairs_(11,_9)
 BV BND       nodepairs_(12,_10)
 BV BND       nodepairs_(12,_20)
 BV BND       nodepairs_(12,_22)
 BV BND       nodepairs_(12,_24)
 BV BND       nodepairs_(12,_8)
 BV BND       nodepairs_(13,_0)
 BV BND       nodepairs_(13,_1)
 BV BND       nodepairs_(13,_11)
 BV BND       nodepairs_(13,_12)
 BV BND       nodepairs_(13,_13)
 BV BND       nodepairs_(13,_14)
 BV BND       nodepairs_(13,_15)
 BV BND       nodepairs_(13,_16)
 BV BND       nodepairs_(13,_17)
 BV BND       nodepairs_(13,_18)
 BV BND       nodepairs_(13,_19)
 BV BND       nodepairs_(13,_2)
 BV BND       nodepairs_(13,_21)
 BV BND       nodepairs_(13,_23)
 BV BND       nodepairs_(13,_3)
 BV BND       nodepairs_(13,_4)
 BV BND       nodepairs_(13,_5)
 BV BND       nodepairs_(13,_6)
 BV BND       nodepairs_(13,_7)
 BV BND       nodepairs_(13,_9)
 BV BND       nodepairs_(14,_0)
 BV BND       nodepairs_(14,_1)
 BV BND       nodepairs_(14,_11)
 BV BND       nodepairs_(14,_12)
 BV BND       nodepairs_(14,_13)
 BV BND       nodepairs_(14,_14)
 BV BND       nodepairs_(14,_15)
 BV BND       nodepairs_(14,_16)
 BV BND       nodepairs_(14,_17)
 BV BND       nodepairs_(14,_18)
 BV BND       nodepairs_(14,_19)
 BV BND       nodepairs_(14,_2)
 BV BND       nodepairs_(14,_21)
 BV BND       nodepairs_(14,_23)
 BV BND       nodepairs_(14,_3)
 BV BND       nodepairs_(14,_4)
 BV BND       nodepairs_(14,_5)
 BV BND       nodepairs_(14,_6)
 BV BND       nodepairs_(14,_7)
 BV BND       nodepairs_(14,_9)
 BV BND       nodepairs_(15,_0)
 BV BND       nodepairs_(15,_1)
 BV BND       nodepairs_(15,_11)
 BV BND       nodepairs_(15,_12)
 BV BND       nodepairs_(15,_13)
 BV BND       nodepairs_(15,_14)
 BV BND       nodepairs_(15,_15)
 BV BND       nodepairs_(15,_16)
 BV BND       nodepairs_(15,_17)
 BV BND       nodepairs_(15,_18)
 BV BND       nodepairs_(15,_19)
 BV BND       nodepairs_(15,_2)
 BV BND       nodepairs_(15,_21)
 BV BND       nodepairs_(15,_23)
 BV BND       nodepairs_(15,_3)
 BV BND       nodepairs_(15,_4)
 BV BND       nodepairs_(15,_5)
 BV BND       nodepairs_(15,_6)
 BV BND       nodepairs_(15,_7)
 BV BND       nodepairs_(15,_9)
 BV BND       nodepairs_(16,_0)
 BV BND       nodepairs_(16,_1)
 BV BND       nodepairs_(16,_11)
 BV BND       nodepairs_(16,_12)
 BV BND       nodepairs_(16,_13)
 BV BND       nodepairs_(16,_14)
 BV BND       nodepairs_(16,_15)
 BV BND       nodepairs_(16,_16)
 BV BND       nodepairs_(16,_17)
 BV BND       nodepairs_(16,_18)
 BV BND       nodepairs_(16,_19)
 BV BND       nodepairs_(16,_2)
 BV BND       nodepairs_(16,_21)
 BV BND       nodepairs_(16,_23)
 BV BND       nodepairs_(16,_3)
 BV BND       nodepairs_(16,_4)
 BV BND       nodepairs_(16,_5)
 BV BND       nodepairs_(16,_6)
 BV BND       nodepairs_(16,_7)
 BV BND       nodepairs_(16,_9)
 BV BND       nodepairs_(17,_0)
 BV BND       nodepairs_(17,_1)
 BV BND       nodepairs_(17,_11)
 BV BND       nodepairs_(17,_12)
 BV BND       nodepairs_(17,_13)
 BV BND       nodepairs_(17,_14)
 BV BND       nodepairs_(17,_15)
 BV BND       nodepairs_(17,_16)
 BV BND       nodepairs_(17,_17)
 BV BND       nodepairs_(17,_18)
 BV BND       nodepairs_(17,_19)
 BV BND       nodepairs_(17,_2)
 BV BND       nodepairs_(17,_21)
 BV BND       nodepairs_(17,_23)
 BV BND       nodepairs_(17,_3)
 BV BND       nodepairs_(17,_4)
 BV BND       nodepairs_(17,_5)
 BV BND       nodepairs_(17,_6)
 BV BND       nodepairs_(17,_7)
 BV BND       nodepairs_(17,_9)
 BV BND       nodepairs_(18,_10)
 BV BND       nodepairs_(18,_20)
 BV BND       nodepairs_(18,_22)
 BV BND       nodepairs_(18,_24)
 BV BND       nodepairs_(18,_8)
 BV BND       nodepairs_(19,_0)
 BV BND       nodepairs_(19,_1)
 BV BND       nodepairs_(19,_11)
 BV BND       nodepairs_(19,_12)
 BV BND       nodepairs_(19,_13)
 BV BND       nodepairs_(19,_14)
 BV BND       nodepairs_(19,_15)
 BV BND       nodepairs_(19,_16)
 BV BND       nodepairs_(19,_17)
 BV BND       nodepairs_(19,_18)
 BV BND       nodepairs_(19,_19)
 BV BND       nodepairs_(19,_2)
 BV BND       nodepairs_(19,_21)
 BV BND       nodepairs_(19,_23)
 BV BND       nodepairs_(19,_3)
 BV BND       nodepairs_(19,_4)
 BV BND       nodepairs_(19,_5)
 BV BND       nodepairs_(19,_6)
 BV BND       nodepairs_(19,_7)
 BV BND       nodepairs_(19,_9)
 BV BND       nodepairs_(2,_0)
 BV BND       nodepairs_(2,_1)
 BV BND       nodepairs_(2,_11)
 BV BND       nodepairs_(2,_12)
 BV BND       nodepairs_(2,_13)
 BV BND       nodepairs_(2,_14)
 BV BND       nodepairs_(2,_15)
 BV BND       nodepairs_(2,_16)
 BV BND       nodepairs_(2,_17)
 BV BND       nodepairs_(2,_18)
 BV BND       nodepairs_(2,_19)
 BV BND       nodepairs_(2,_2)
 BV BND       nodepairs_(2,_21)
 BV BND       nodepairs_(2,_23)
 BV BND       nodepairs_(2,_3)
 BV BND       nodepairs_(2,_4)
 BV BND       nodepairs_(2,_5)
 BV BND       nodepairs_(2,_6)
 BV BND       nodepairs_(2,_7)
 BV BND       nodepairs_(2,_9)
 BV BND       nodepairs_(20,_10)
 BV BND       nodepairs_(20,_20)
 BV BND       nodepairs_(20,_22)
 BV BND       nodepairs_(20,_24)
 BV BND       nodepairs_(20,_8)
 BV BND       nodepairs_(21,_0)
 BV BND       nodepairs_(21,_1)
 BV BND       nodepairs_(21,_11)
 BV BND       nodepairs_(21,_12)
 BV BND       nodepairs_(21,_13)
 BV BND       nodepairs_(21,_14)
 BV BND       nodepairs_(21,_15)
 BV BND       nodepairs_(21,_16)
 BV BND       nodepairs_(21,_17)
 BV BND       nodepairs_(21,_18)
 BV BND       nodepairs_(21,_19)
 BV BND       nodepairs_(21,_2)
 BV BND       nodepairs_(21,_21)
 BV BND       nodepairs_(21,_23)
 BV BND       nodepairs_(21,_3)
 BV BND       nodepairs_(21,_4)
 BV BND       nodepairs_(21,_5)
 BV BND       nodepairs_(21,_6)
 BV BND       nodepairs_(21,_7)
 BV BND       nodepairs_(21,_9)
 BV BND       nodepairs_(22,_0)
 BV BND       nodepairs_(22,_1)
 BV BND       nodepairs_(22,_11)
 BV BND       nodepairs_(22,_12)
 BV BND       nodepairs_(22,_13)
 BV BND       nodepairs_(22,_14)
 BV BND       nodepairs_(22,_15)
 BV BND       nodepairs_(22,_16)
 BV BND       nodepairs_(22,_17)
 BV BND       nodepairs_(22,_18)
 BV BND       nodepairs_(22,_19)
 BV BND       nodepairs_(22,_2)
 BV BND       nodepairs_(22,_21)
 BV BND       nodepairs_(22,_23)
 BV BND       nodepairs_(22,_3)
 BV BND       nodepairs_(22,_4)
 BV BND       nodepairs_(22,_5)
 BV BND       nodepairs_(22,_6)
 BV BND       nodepairs_(22,_7)
 BV BND       nodepairs_(22,_9)
 BV BND       nodepairs_(23,_0)
 BV BND       nodepairs_(23,_1)
 BV BND       nodepairs_(23,_11)
 BV BND       nodepairs_(23,_12)
 BV BND       nodepairs_(23,_13)
 BV BND       nodepairs_(23,_14)
 BV BND       nodepairs_(23,_15)
 BV BND       nodepairs_(23,_16)
 BV BND       nodepairs_(23,_17)
 BV BND       nodepairs_(23,_18)
 BV BND       nodepairs_(23,_19)
 BV BND       nodepairs_(23,_2)
 BV BND       nodepairs_(23,_21)
 BV BND       nodepairs_(23,_23)
 BV BND       nodepairs_(23,_3)
 BV BND       nodepairs_(23,_4)
 BV BND       nodepairs_(23,_5)
 BV BND       nodepairs_(23,_6)
 BV BND       nodepairs_(23,_7)
 BV BND       nodepairs_(23,_9)
 BV BND       nodepairs_(24,_10)
 BV BND       nodepairs_(24,_20)
 BV BND       nodepairs_(24,_22)
 BV BND       nodepairs_(24,_24)
 BV BND       nodepairs_(24,_8)
 BV BND       nodepairs_(3,_0)
 BV BND       nodepairs_(3,_1)
 BV BND       nodepairs_(3,_11)
 BV BND       nodepairs_(3,_12)
 BV BND       nodepairs_(3,_13)
 BV BND       nodepairs_(3,_14)
 BV BND       nodepairs_(3,_15)
 BV BND       nodepairs_(3,_16)
 BV BND       nodepairs_(3,_17)
 BV BND       nodepairs_(3,_18)
 BV BND       nodepairs_(3,_19)
 BV BND       nodepairs_(3,_2)
 BV BND       nodepairs_(3,_21)
 BV BND       nodepairs_(3,_23)
 BV BND       nodepairs_(3,_3)
 BV BND       nodepairs_(3,_4)
 BV BND       nodepairs_(3,_5)
 BV BND       nodepairs_(3,_6)
 BV BND       nodepairs_(3,_7)
 BV BND       nodepairs_(3,_9)
 BV BND       nodepairs_(4,_0)
 BV BND       nodepairs_(4,_1)
 BV BND       nodepairs_(4,_11)
 BV BND       nodepairs_(4,_12)
 BV BND       nodepairs_(4,_13)
 BV BND       nodepairs_(4,_14)
 BV BND       nodepairs_(4,_15)
 BV BND       nodepairs_(4,_16)
 BV BND       nodepairs_(4,_17)
 BV BND       nodepairs_(4,_18)
 BV BND       nodepairs_(4,_19)
 BV BND       nodepairs_(4,_2)
 BV BND       nodepairs_(4,_21)
 BV BND       nodepairs_(4,_23)
 BV BND       nodepairs_(4,_3)
 BV BND       nodepairs_(4,_4)
 BV BND       nodepairs_(4,_5)
 BV BND       nodepairs_(4,_6)
 BV BND       nodepairs_(4,_7)
 BV BND       nodepairs_(4,_9)
 BV BND       nodepairs_(5,_10)
 BV BND       nodepairs_(5,_20)
 BV BND       nodepairs_(5,_22)
 BV BND       nodepairs_(5,_24)
 BV BND       nodepairs_(5,_8)
 BV BND       nodepairs_(6,_10)
 BV BND       nodepairs_(6,_20)
 BV BND       nodepairs_(6,_22)
 BV BND       nodepairs_(6,_24)
 BV BND       nodepairs_(6,_8)
 BV BND       nodepairs_(7,_0)
 BV BND       nodepairs_(7,_1)
 BV BND       nodepairs_(7,_11)
 BV BND       nodepairs_(7,_12)
 BV BND       nodepairs_(7,_13)
 BV BND       nodepairs_(7,_14)
 BV BND       nodepairs_(7,_15)
 BV BND       nodepairs_(7,_16)
 BV BND       nodepairs_(7,_17)
 BV BND       nodepairs_(7,_18)
 BV BND       nodepairs_(7,_19)
 BV BND       nodepairs_(7,_2)
 BV BND       nodepairs_(7,_21)
 BV BND       nodepairs_(7,_23)
 BV BND       nodepairs_(7,_3)
 BV BND       nodepairs_(7,_4)
 BV BND       nodepairs_(7,_5)
 BV BND       nodepairs_(7,_6)
 BV BND       nodepairs_(7,_7)
 BV BND       nodepairs_(7,_9)
 BV BND       nodepairs_(8,_0)
 BV BND       nodepairs_(8,_1)
 BV BND       nodepairs_(8,_11)
 BV BND       nodepairs_(8,_12)
 BV BND       nodepairs_(8,_13)
 BV BND       nodepairs_(8,_14)
 BV BND       nodepairs_(8,_15)
 BV BND       nodepairs_(8,_16)
 BV BND       nodepairs_(8,_17)
 BV BND       nodepairs_(8,_18)
 BV BND       nodepairs_(8,_19)
 BV BND       nodepairs_(8,_2)
 BV BND       nodepairs_(8,_21)
 BV BND       nodepairs_(8,_23)
 BV BND       nodepairs_(8,_3)
 BV BND       nodepairs_(8,_4)
 BV BND       nodepairs_(8,_5)
 BV BND       nodepairs_(8,_6)
 BV BND       nodepairs_(8,_7)
 BV BND       nodepairs_(8,_9)
 BV BND       nodepairs_(9,_0)
 BV BND       nodepairs_(9,_1)
 BV BND       nodepairs_(9,_11)
 BV BND       nodepairs_(9,_12)
 BV BND       nodepairs_(9,_13)
 BV BND       nodepairs_(9,_14)
 BV BND       nodepairs_(9,_15)
 BV BND       nodepairs_(9,_16)
 BV BND       nodepairs_(9,_17)
 BV BND       nodepairs_(9,_18)
 BV BND       nodepairs_(9,_19)
 BV BND       nodepairs_(9,_2)
 BV BND       nodepairs_(9,_21)
 BV BND       nodepairs_(9,_23)
 BV BND       nodepairs_(9,_3)
 BV BND       nodepairs_(9,_4)
 BV BND       nodepairs_(9,_5)
 BV BND       nodepairs_(9,_6)
 BV BND       nodepairs_(9,_7)
 BV BND       nodepairs_(9,_9)
ENDATA
