\* MCES *\
Minimize
OBJ: edgepairs_((0,_1),__1) + edgepairs_((0,_26),__1)
 + edgepairs_((0,_43),_(19,_20)) + edgepairs_((0,_43),_(3,_4))
 + edgepairs_((0,_43),_(42,_43)) + edgepairs_((0,_43),__1)
 + edgepairs_((1,_2),_(19,_20)) + edgepairs_((1,_2),_(3,_4))
 + edgepairs_((1,_2),_(42,_43)) + edgepairs_((1,_2),__1)
 + edgepairs_((10,_11),__1) + edgepairs_((11,_12),__1)
 + edgepairs_((12,_13),__1) + edgepairs_((13,_14),__1)
 + edgepairs_((14,_15),__1) + edgepairs_((15,_16),__1)
 + edgepairs_((16,_17),__1) + edgepairs_((17,_18),__1)
 + edgepairs_((18,_19),__1) + edgepairs_((19,_20),__1)
 + edgepairs_((2,_3),_(19,_20)) + edgepairs_((2,_3),_(3,_4))
 + edgepairs_((2,_3),_(42,_43)) + edgepairs_((2,_3),__1)
 + edgepairs_((20,_21),__1) + edgepairs_((21,_22),__1)
 + edgepairs_((22,_23),__1) + edgepairs_((23,_24),__1)
 + edgepairs_((23,_25),__1) + edgepairs_((26,_27),_(19,_20))
 + edgepairs_((26,_27),_(3,_4)) + edgepairs_((26,_27),_(42,_43))
 + edgepairs_((26,_27),__1) + edgepairs_((27,_28),_(19,_20))
 + edgepairs_((27,_28),_(3,_4)) + edgepairs_((27,_28),_(42,_43))
 + edgepairs_((27,_28),__1) + edgepairs_((28,_29),_(0,_41))
 + edgepairs_((28,_29),_(1,_2)) + edgepairs_((28,_29),_(17,_18))
 + edgepairs_((28,_29),_(18,_19)) + edgepairs_((28,_29),_(2,_3))
 + edgepairs_((28,_29),_(41,_42)) + 2 edgepairs_((28,_29),__1)
 + edgepairs_((28,_30),__1) + edgepairs_((3,_4),_(0,_41))
 + edgepairs_((3,_4),_(1,_2)) + edgepairs_((3,_4),_(17,_18))
 + edgepairs_((3,_4),_(18,_19)) + edgepairs_((3,_4),_(2,_3))
 + edgepairs_((3,_4),_(41,_42)) + 2 edgepairs_((3,_4),__1)
 + edgepairs_((3,_5),__1) + edgepairs_((30,_31),__1)
 + edgepairs_((31,_32),__1) + edgepairs_((32,_33),__1)
 + edgepairs_((33,_34),__1) + edgepairs_((34,_35),__1)
 + edgepairs_((35,_36),__1) + edgepairs_((36,_37),__1)
 + edgepairs_((37,_38),__1) + edgepairs_((38,_39),__1)
 + edgepairs_((39,_40),__1) + edgepairs_((40,_41),__1)
 + edgepairs_((40,_42),__1) + edgepairs_((43,_44),_(19,_20))
 + edgepairs_((43,_44),_(3,_4)) + edgepairs_((43,_44),_(42,_43))
 + edgepairs_((43,_44),__1) + edgepairs_((44,_45),_(0,_41))
 + edgepairs_((44,_45),_(1,_2)) + edgepairs_((44,_45),_(17,_18))
 + edgepairs_((44,_45),_(18,_19)) + edgepairs_((44,_45),_(2,_3))
 + edgepairs_((44,_45),_(41,_42)) + 2 edgepairs_((44,_45),__1)
 + edgepairs_((44,_46),__1) + edgepairs_((46,_47),__1)
 + edgepairs_((47,_48),__1) + edgepairs_((48,_49),__1)
 + edgepairs_((49,_50),__1) + edgepairs_((5,_6),__1)
 + edgepairs_((50,_51),__1) + edgepairs_((51,_52),__1)
 + edgepairs_((52,_53),__1) + edgepairs_((53,_54),__1)
 + edgepairs_((6,_7),__1) + edgepairs_((7,_8),__1) + edgepairs_((8,_9),__1)
 + edgepairs_((9,_10),__1) + edgepairs_(_1,_(0,_1)) + edgepairs_(_1,_(0,_17))
 + edgepairs_(_1,_(0,_41)) + edgepairs_(_1,_(1,_2)) + edgepairs_(_1,_(10,_11))
 + edgepairs_(_1,_(11,_12)) + edgepairs_(_1,_(12,_13))
 + edgepairs_(_1,_(13,_14)) + edgepairs_(_1,_(14,_15))
 + edgepairs_(_1,_(15,_16)) + edgepairs_(_1,_(17,_18))
 + edgepairs_(_1,_(18,_19)) + 2 edgepairs_(_1,_(19,_20))
 + edgepairs_(_1,_(19,_21)) + edgepairs_(_1,_(2,_3))
 + edgepairs_(_1,_(21,_22)) + edgepairs_(_1,_(22,_23))
 + edgepairs_(_1,_(23,_24)) + edgepairs_(_1,_(24,_25))
 + edgepairs_(_1,_(25,_26)) + edgepairs_(_1,_(26,_27))
 + edgepairs_(_1,_(27,_28)) + edgepairs_(_1,_(28,_29))
 + edgepairs_(_1,_(29,_30)) + 2 edgepairs_(_1,_(3,_4))
 + edgepairs_(_1,_(3,_5)) + edgepairs_(_1,_(30,_31))
 + edgepairs_(_1,_(31,_32)) + edgepairs_(_1,_(32,_33))
 + edgepairs_(_1,_(33,_34)) + edgepairs_(_1,_(34,_35))
 + edgepairs_(_1,_(35,_36)) + edgepairs_(_1,_(36,_37))
 + edgepairs_(_1,_(37,_38)) + edgepairs_(_1,_(37,_39))
 + edgepairs_(_1,_(39,_40)) + edgepairs_(_1,_(41,_42))
 + 2 edgepairs_(_1,_(42,_43)) + edgepairs_(_1,_(42,_44))
 + edgepairs_(_1,_(44,_45)) + edgepairs_(_1,_(45,_46))
 + edgepairs_(_1,_(46,_47)) + edgepairs_(_1,_(47,_48))
 + edgepairs_(_1,_(48,_49)) + edgepairs_(_1,_(49,_50))
 + edgepairs_(_1,_(5,_6)) + edgepairs_(_1,_(50,_51))
 + edgepairs_(_1,_(51,_52)) + edgepairs_(_1,_(52,_53))
 + edgepairs_(_1,_(53,_54)) + edgepairs_(_1,_(6,_7)) + edgepairs_(_1,_(7,_8))
 + edgepairs_(_1,_(8,_9)) + edgepairs_(_1,_(9,_10))
Subject To
_C1: nodepairs_(0,_0) + nodepairs_(0,_1) + nodepairs_(0,_10)
 + nodepairs_(0,_11) + nodepairs_(0,_12) + nodepairs_(0,_13)
 + nodepairs_(0,_14) + nodepairs_(0,_15) + nodepairs_(0,_16)
 + nodepairs_(0,_17) + nodepairs_(0,_19) + nodepairs_(0,_21)
 + nodepairs_(0,_22) + nodepairs_(0,_23) + nodepairs_(0,_24)
 + nodepairs_(0,_25) + nodepairs_(0,_26) + nodepairs_(0,_27)
 + nodepairs_(0,_28) + nodepairs_(0,_29) + nodepairs_(0,_3)
 + nodepairs_(0,_30) + nodepairs_(0,_31) + nodepairs_(0,_32)
 + nodepairs_(0,_33) + nodepairs_(0,_34) + nodepairs_(0,_35)
 + nodepairs_(0,_36) + nodepairs_(0,_37) + nodepairs_(0,_38)
 + nodepairs_(0,_39) + nodepairs_(0,_40) + nodepairs_(0,_42)
 + nodepairs_(0,_44) + nodepairs_(0,_45) + nodepairs_(0,_46)
 + nodepairs_(0,_47) + nodepairs_(0,_48) + nodepairs_(0,_49)
 + nodepairs_(0,_5) + nodepairs_(0,_50) + nodepairs_(0,_51)
 + nodepairs_(0,_52) + nodepairs_(0,_53) + nodepairs_(0,_54)
 + nodepairs_(0,_6) + nodepairs_(0,_7) + nodepairs_(0,_8) + nodepairs_(0,_9)
 <= 1
_C10: nodepairs_(9,_0) + nodepairs_(9,_1) + nodepairs_(9,_10)
 + nodepairs_(9,_11) + nodepairs_(9,_12) + nodepairs_(9,_13)
 + nodepairs_(9,_14) + nodepairs_(9,_15) + nodepairs_(9,_16)
 + nodepairs_(9,_17) + nodepairs_(9,_19) + nodepairs_(9,_21)
 + nodepairs_(9,_22) + nodepairs_(9,_23) + nodepairs_(9,_24)
 + nodepairs_(9,_25) + nodepairs_(9,_26) + nodepairs_(9,_27)
 + nodepairs_(9,_28) + nodepairs_(9,_29) + nodepairs_(9,_3)
 + nodepairs_(9,_30) + nodepairs_(9,_31) + nodepairs_(9,_32)
 + nodepairs_(9,_33) + nodepairs_(9,_34) + nodepairs_(9,_35)
 + nodepairs_(9,_36) + nodepairs_(9,_37) + nodepairs_(9,_38)
 + nodepairs_(9,_39) + nodepairs_(9,_40) + nodepairs_(9,_42)
 + nodepairs_(9,_44) + nodepairs_(9,_45) + nodepairs_(9,_46)
 + nodepairs_(9,_47) + nodepairs_(9,_48) + nodepairs_(9,_49)
 + nodepairs_(9,_5) + nodepairs_(9,_50) + nodepairs_(9,_51)
 + nodepairs_(9,_52) + nodepairs_(9,_53) + nodepairs_(9,_54)
 + nodepairs_(9,_6) + nodepairs_(9,_7) + nodepairs_(9,_8) + nodepairs_(9,_9)
 <= 1
_C100: nodepairs_(0,_44) + nodepairs_(1,_44) + nodepairs_(10,_44)
 + nodepairs_(11,_44) + nodepairs_(12,_44) + nodepairs_(13,_44)
 + nodepairs_(14,_44) + nodepairs_(15,_44) + nodepairs_(16,_44)
 + nodepairs_(17,_44) + nodepairs_(18,_44) + nodepairs_(19,_44)
 + nodepairs_(20,_44) + nodepairs_(21,_44) + nodepairs_(22,_44)
 + nodepairs_(23,_44) + nodepairs_(24,_44) + nodepairs_(25,_44)
 + nodepairs_(26,_44) + nodepairs_(28,_44) + nodepairs_(3,_44)
 + nodepairs_(30,_44) + nodepairs_(31,_44) + nodepairs_(32,_44)
 + nodepairs_(33,_44) + nodepairs_(34,_44) + nodepairs_(35,_44)
 + nodepairs_(36,_44) + nodepairs_(37,_44) + nodepairs_(38,_44)
 + nodepairs_(39,_44) + nodepairs_(40,_44) + nodepairs_(41,_44)
 + nodepairs_(42,_44) + nodepairs_(44,_44) + nodepairs_(46,_44)
 + nodepairs_(47,_44) + nodepairs_(48,_44) + nodepairs_(49,_44)
 + nodepairs_(5,_44) + nodepairs_(50,_44) + nodepairs_(51,_44)
 + nodepairs_(52,_44) + nodepairs_(53,_44) + nodepairs_(54,_44)
 + nodepairs_(6,_44) + nodepairs_(7,_44) + nodepairs_(8,_44)
 + nodepairs_(9,_44) <= 1
_C1000: edgepairs_((13,_14),_(24,_25)) + edgepairs_((14,_15),_(24,_25))
 - nodepairs_(14,_24) - nodepairs_(14,_25) <= 0
_C1001: edgepairs_((13,_14),_(25,_26)) + edgepairs_((14,_15),_(25,_26))
 - nodepairs_(14,_25) - nodepairs_(14,_26) <= 0
_C1002: edgepairs_((13,_14),_(26,_27)) + edgepairs_((14,_15),_(26,_27))
 - nodepairs_(14,_26) - nodepairs_(14,_27) <= 0
_C1003: edgepairs_((13,_14),_(27,_28)) + edgepairs_((14,_15),_(27,_28))
 - nodepairs_(14,_27) - nodepairs_(14,_28) <= 0
_C1004: edgepairs_((13,_14),_(28,_29)) + edgepairs_((14,_15),_(28,_29))
 - nodepairs_(14,_28) - nodepairs_(14,_29) <= 0
_C1005: edgepairs_((13,_14),_(29,_30)) + edgepairs_((14,_15),_(29,_30))
 - nodepairs_(14,_29) - nodepairs_(14,_30) <= 0
_C1006: edgepairs_((13,_14),_(30,_31)) + edgepairs_((14,_15),_(30,_31))
 - nodepairs_(14,_30) - nodepairs_(14,_31) <= 0
_C1007: edgepairs_((13,_14),_(31,_32)) + edgepairs_((14,_15),_(31,_32))
 - nodepairs_(14,_31) - nodepairs_(14,_32) <= 0
_C1008: edgepairs_((13,_14),_(32,_33)) + edgepairs_((14,_15),_(32,_33))
 - nodepairs_(14,_32) - nodepairs_(14,_33) <= 0
_C1009: edgepairs_((13,_14),_(33,_34)) + edgepairs_((14,_15),_(33,_34))
 - nodepairs_(14,_33) - nodepairs_(14,_34) <= 0
_C101: nodepairs_(0,_45) + nodepairs_(1,_45) + nodepairs_(10,_45)
 + nodepairs_(11,_45) + nodepairs_(12,_45) + nodepairs_(13,_45)
 + nodepairs_(14,_45) + nodepairs_(15,_45) + nodepairs_(16,_45)
 + nodepairs_(17,_45) + nodepairs_(18,_45) + nodepairs_(19,_45)
 + nodepairs_(20,_45) + nodepairs_(21,_45) + nodepairs_(22,_45)
 + nodepairs_(23,_45) + nodepairs_(24,_45) + nodepairs_(25,_45)
 + nodepairs_(26,_45) + nodepairs_(28,_45) + nodepairs_(3,_45)
 + nodepairs_(30,_45) + nodepairs_(31,_45) + nodepairs_(32,_45)
 + nodepairs_(33,_45) + nodepairs_(34,_45) + nodepairs_(35,_45)
 + nodepairs_(36,_45) + nodepairs_(37,_45) + nodepairs_(38,_45)
 + nodepairs_(39,_45) + nodepairs_(40,_45) + nodepairs_(41,_45)
 + nodepairs_(42,_45) + nodepairs_(44,_45) + nodepairs_(46,_45)
 + nodepairs_(47,_45) + nodepairs_(48,_45) + nodepairs_(49,_45)
 + nodepairs_(5,_45) + nodepairs_(50,_45) + nodepairs_(51,_45)
 + nodepairs_(52,_45) + nodepairs_(53,_45) + nodepairs_(54,_45)
 + nodepairs_(6,_45) + nodepairs_(7,_45) + nodepairs_(8,_45)
 + nodepairs_(9,_45) <= 1
_C1010: edgepairs_((13,_14),_(34,_35)) + edgepairs_((14,_15),_(34,_35))
 - nodepairs_(14,_34) - nodepairs_(14,_35) <= 0
_C1011: edgepairs_((13,_14),_(35,_36)) + edgepairs_((14,_15),_(35,_36))
 - nodepairs_(14,_35) - nodepairs_(14,_36) <= 0
_C1012: edgepairs_((13,_14),_(36,_37)) + edgepairs_((14,_15),_(36,_37))
 - nodepairs_(14,_36) - nodepairs_(14,_37) <= 0
_C1013: edgepairs_((13,_14),_(37,_38)) + edgepairs_((14,_15),_(37,_38))
 - nodepairs_(14,_37) - nodepairs_(14,_38) <= 0
_C1014: edgepairs_((13,_14),_(37,_39)) + edgepairs_((14,_15),_(37,_39))
 - nodepairs_(14,_37) - nodepairs_(14,_39) <= 0
_C1015: edgepairs_((13,_14),_(39,_40)) + edgepairs_((14,_15),_(39,_40))
 - nodepairs_(14,_39) - nodepairs_(14,_40) <= 0
_C1016: - nodepairs_(14,_42) <= 0
_C1017: - nodepairs_(14,_42) <= 0
_C1018: edgepairs_((13,_14),_(42,_44)) + edgepairs_((14,_15),_(42,_44))
 - nodepairs_(14,_42) - nodepairs_(14,_44) <= 0
_C1019: edgepairs_((13,_14),_(44,_45)) + edgepairs_((14,_15),_(44,_45))
 - nodepairs_(14,_44) - nodepairs_(14,_45) <= 0
_C102: nodepairs_(0,_46) + nodepairs_(1,_46) + nodepairs_(10,_46)
 + nodepairs_(11,_46) + nodepairs_(12,_46) + nodepairs_(13,_46)
 + nodepairs_(14,_46) + nodepairs_(15,_46) + nodepairs_(16,_46)
 + nodepairs_(17,_46) + nodepairs_(18,_46) + nodepairs_(19,_46)
 + nodepairs_(20,_46) + nodepairs_(21,_46) + nodepairs_(22,_46)
 + nodepairs_(23,_46) + nodepairs_(24,_46) + nodepairs_(25,_46)
 + nodepairs_(26,_46) + nodepairs_(28,_46) + nodepairs_(3,_46)
 + nodepairs_(30,_46) + nodepairs_(31,_46) + nodepairs_(32,_46)
 + nodepairs_(33,_46) + nodepairs_(34,_46) + nodepairs_(35,_46)
 + nodepairs_(36,_46) + nodepairs_(37,_46) + nodepairs_(38,_46)
 + nodepairs_(39,_46) + nodepairs_(40,_46) + nodepairs_(41,_46)
 + nodepairs_(42,_46) + nodepairs_(44,_46) + nodepairs_(46,_46)
 + nodepairs_(47,_46) + nodepairs_(48,_46) + nodepairs_(49,_46)
 + nodepairs_(5,_46) + nodepairs_(50,_46) + nodepairs_(51,_46)
 + nodepairs_(52,_46) + nodepairs_(53,_46) + nodepairs_(54,_46)
 + nodepairs_(6,_46) + nodepairs_(7,_46) + nodepairs_(8,_46)
 + nodepairs_(9,_46) <= 1
_C1020: edgepairs_((13,_14),_(45,_46)) + edgepairs_((14,_15),_(45,_46))
 - nodepairs_(14,_45) - nodepairs_(14,_46) <= 0
_C1021: edgepairs_((13,_14),_(46,_47)) + edgepairs_((14,_15),_(46,_47))
 - nodepairs_(14,_46) - nodepairs_(14,_47) <= 0
_C1022: edgepairs_((13,_14),_(47,_48)) + edgepairs_((14,_15),_(47,_48))
 - nodepairs_(14,_47) - nodepairs_(14,_48) <= 0
_C1023: edgepairs_((13,_14),_(48,_49)) + edgepairs_((14,_15),_(48,_49))
 - nodepairs_(14,_48) - nodepairs_(14,_49) <= 0
_C1024: edgepairs_((13,_14),_(49,_50)) + edgepairs_((14,_15),_(49,_50))
 - nodepairs_(14,_49) - nodepairs_(14,_50) <= 0
_C1025: edgepairs_((13,_14),_(50,_51)) + edgepairs_((14,_15),_(50,_51))
 - nodepairs_(14,_50) - nodepairs_(14,_51) <= 0
_C1026: edgepairs_((13,_14),_(51,_52)) + edgepairs_((14,_15),_(51,_52))
 - nodepairs_(14,_51) - nodepairs_(14,_52) <= 0
_C1027: edgepairs_((13,_14),_(52,_53)) + edgepairs_((14,_15),_(52,_53))
 - nodepairs_(14,_52) - nodepairs_(14,_53) <= 0
_C1028: edgepairs_((13,_14),_(53,_54)) + edgepairs_((14,_15),_(53,_54))
 - nodepairs_(14,_53) - nodepairs_(14,_54) <= 0
_C1029: edgepairs_((14,_15),_(0,_1)) + edgepairs_((15,_16),_(0,_1))
 - nodepairs_(15,_0) - nodepairs_(15,_1) <= 0
_C103: nodepairs_(0,_47) + nodepairs_(1,_47) + nodepairs_(10,_47)
 + nodepairs_(11,_47) + nodepairs_(12,_47) + nodepairs_(13,_47)
 + nodepairs_(14,_47) + nodepairs_(15,_47) + nodepairs_(16,_47)
 + nodepairs_(17,_47) + nodepairs_(18,_47) + nodepairs_(19,_47)
 + nodepairs_(20,_47) + nodepairs_(21,_47) + nodepairs_(22,_47)
 + nodepairs_(23,_47) + nodepairs_(24,_47) + nodepairs_(25,_47)
 + nodepairs_(26,_47) + nodepairs_(28,_47) + nodepairs_(3,_47)
 + nodepairs_(30,_47) + nodepairs_(31,_47) + nodepairs_(32,_47)
 + nodepairs_(33,_47) + nodepairs_(34,_47) + nodepairs_(35,_47)
 + nodepairs_(36,_47) + nodepairs_(37,_47) + nodepairs_(38,_47)
 + nodepairs_(39,_47) + nodepairs_(40,_47) + nodepairs_(41,_47)
 + nodepairs_(42,_47) + nodepairs_(44,_47) + nodepairs_(46,_47)
 + nodepairs_(47,_47) + nodepairs_(48,_47) + nodepairs_(49,_47)
 + nodepairs_(5,_47) + nodepairs_(50,_47) + nodepairs_(51,_47)
 + nodepairs_(52,_47) + nodepairs_(53,_47) + nodepairs_(54,_47)
 + nodepairs_(6,_47) + nodepairs_(7,_47) + nodepairs_(8,_47)
 + nodepairs_(9,_47) <= 1
_C1030: edgepairs_((14,_15),_(0,_17)) + edgepairs_((15,_16),_(0,_17))
 - nodepairs_(15,_0) - nodepairs_(15,_17) <= 0
_C1031: - nodepairs_(15,_0) <= 0
_C1032: - nodepairs_(15,_1) <= 0
_C1033: - nodepairs_(15,_3) <= 0
_C1034: - nodepairs_(15,_3) <= 0
_C1035: edgepairs_((14,_15),_(3,_5)) + edgepairs_((15,_16),_(3,_5))
 - nodepairs_(15,_3) - nodepairs_(15,_5) <= 0
_C1036: edgepairs_((14,_15),_(5,_6)) + edgepairs_((15,_16),_(5,_6))
 - nodepairs_(15,_5) - nodepairs_(15,_6) <= 0
_C1037: edgepairs_((14,_15),_(6,_7)) + edgepairs_((15,_16),_(6,_7))
 - nodepairs_(15,_6) - nodepairs_(15,_7) <= 0
_C1038: edgepairs_((14,_15),_(7,_8)) + edgepairs_((15,_16),_(7,_8))
 - nodepairs_(15,_7) - nodepairs_(15,_8) <= 0
_C1039: edgepairs_((14,_15),_(8,_9)) + edgepairs_((15,_16),_(8,_9))
 - nodepairs_(15,_8) - nodepairs_(15,_9) <= 0
_C104: nodepairs_(0,_48) + nodepairs_(1,_48) + nodepairs_(10,_48)
 + nodepairs_(11,_48) + nodepairs_(12,_48) + nodepairs_(13,_48)
 + nodepairs_(14,_48) + nodepairs_(15,_48) + nodepairs_(16,_48)
 + nodepairs_(17,_48) + nodepairs_(18,_48) + nodepairs_(19,_48)
 + nodepairs_(20,_48) + nodepairs_(21,_48) + nodepairs_(22,_48)
 + nodepairs_(23,_48) + nodepairs_(24,_48) + nodepairs_(25,_48)
 + nodepairs_(26,_48) + nodepairs_(28,_48) + nodepairs_(3,_48)
 + nodepairs_(30,_48) + nodepairs_(31,_48) + nodepairs_(32,_48)
 + nodepairs_(33,_48) + nodepairs_(34,_48) + nodepairs_(35,_48)
 + nodepairs_(36,_48) + nodepairs_(37,_48) + nodepairs_(38,_48)
 + nodepairs_(39,_48) + nodepairs_(40,_48) + nodepairs_(41,_48)
 + nodepairs_(42,_48) + nodepairs_(44,_48) + nodepairs_(46,_48)
 + nodepairs_(47,_48) + nodepairs_(48,_48) + nodepairs_(49,_48)
 + nodepairs_(5,_48) + nodepairs_(50,_48) + nodepairs_(51,_48)
 + nodepairs_(52,_48) + nodepairs_(53,_48) + nodepairs_(54,_48)
 + nodepairs_(6,_48) + nodepairs_(7,_48) + nodepairs_(8,_48)
 + nodepairs_(9,_48) <= 1
_C1040: edgepairs_((14,_15),_(9,_10)) + edgepairs_((15,_16),_(9,_10))
 - nodepairs_(15,_10) - nodepairs_(15,_9) <= 0
_C1041: edgepairs_((14,_15),_(10,_11)) + edgepairs_((15,_16),_(10,_11))
 - nodepairs_(15,_10) - nodepairs_(15,_11) <= 0
_C1042: edgepairs_((14,_15),_(11,_12)) + edgepairs_((15,_16),_(11,_12))
 - nodepairs_(15,_11) - nodepairs_(15,_12) <= 0
_C1043: edgepairs_((14,_15),_(12,_13)) + edgepairs_((15,_16),_(12,_13))
 - nodepairs_(15,_12) - nodepairs_(15,_13) <= 0
_C1044: edgepairs_((14,_15),_(13,_14)) + edgepairs_((15,_16),_(13,_14))
 - nodepairs_(15,_13) - nodepairs_(15,_14) <= 0
_C1045: edgepairs_((14,_15),_(14,_15)) + edgepairs_((15,_16),_(14,_15))
 - nodepairs_(15,_14) - nodepairs_(15,_15) <= 0
_C1046: edgepairs_((14,_15),_(15,_16)) + edgepairs_((15,_16),_(15,_16))
 - nodepairs_(15,_15) - nodepairs_(15,_16) <= 0
_C1047: - nodepairs_(15,_17) <= 0
_C1048: - nodepairs_(15,_19) <= 0
_C1049: - nodepairs_(15,_19) <= 0
_C105: nodepairs_(0,_49) + nodepairs_(1,_49) + nodepairs_(10,_49)
 + nodepairs_(11,_49) + nodepairs_(12,_49) + nodepairs_(13,_49)
 + nodepairs_(14,_49) + nodepairs_(15,_49) + nodepairs_(16,_49)
 + nodepairs_(17,_49) + nodepairs_(18,_49) + nodepairs_(19,_49)
 + nodepairs_(20,_49) + nodepairs_(21,_49) + nodepairs_(22,_49)
 + nodepairs_(23,_49) + nodepairs_(24,_49) + nodepairs_(25,_49)
 + nodepairs_(26,_49) + nodepairs_(28,_49) + nodepairs_(3,_49)
 + nodepairs_(30,_49) + nodepairs_(31,_49) + nodepairs_(32,_49)
 + nodepairs_(33,_49) + nodepairs_(34,_49) + nodepairs_(35,_49)
 + nodepairs_(36,_49) + nodepairs_(37,_49) + nodepairs_(38,_49)
 + nodepairs_(39,_49) + nodepairs_(40,_49) + nodepairs_(41,_49)
 + nodepairs_(42,_49) + nodepairs_(44,_49) + nodepairs_(46,_49)
 + nodepairs_(47,_49) + nodepairs_(48,_49) + nodepairs_(49,_49)
 + nodepairs_(5,_49) + nodepairs_(50,_49) + nodepairs_(51,_49)
 + nodepairs_(52,_49) + nodepairs_(53,_49) + nodepairs_(54,_49)
 + nodepairs_(6,_49) + nodepairs_(7,_49) + nodepairs_(8,_49)
 + nodepairs_(9,_49) <= 1
_C1050: edgepairs_((14,_15),_(19,_21)) + edgepairs_((15,_16),_(19,_21))
 - nodepairs_(15,_19) - nodepairs_(15,_21) <= 0
_C1051: edgepairs_((14,_15),_(21,_22)) + edgepairs_((15,_16),_(21,_22))
 - nodepairs_(15,_21) - nodepairs_(15,_22) <= 0
_C1052: edgepairs_((14,_15),_(22,_23)) + edgepairs_((15,_16),_(22,_23))
 - nodepairs_(15,_22) - nodepairs_(15,_23) <= 0
_C1053: edgepairs_((14,_15),_(23,_24)) + edgepairs_((15,_16),_(23,_24))
 - nodepairs_(15,_23) - nodepairs_(15,_24) <= 0
_C1054: edgepairs_((14,_15),_(24,_25)) + edgepairs_((15,_16),_(24,_25))
 - nodepairs_(15,_24) - nodepairs_(15,_25) <= 0
_C1055: edgepairs_((14,_15),_(25,_26)) + edgepairs_((15,_16),_(25,_26))
 - nodepairs_(15,_25) - nodepairs_(15,_26) <= 0
_C1056: edgepairs_((14,_15),_(26,_27)) + edgepairs_((15,_16),_(26,_27))
 - nodepairs_(15,_26) - nodepairs_(15,_27) <= 0
_C1057: edgepairs_((14,_15),_(27,_28)) + edgepairs_((15,_16),_(27,_28))
 - nodepairs_(15,_27) - nodepairs_(15,_28) <= 0
_C1058: edgepairs_((14,_15),_(28,_29)) + edgepairs_((15,_16),_(28,_29))
 - nodepairs_(15,_28) - nodepairs_(15,_29) <= 0
_C1059: edgepairs_((14,_15),_(29,_30)) + edgepairs_((15,_16),_(29,_30))
 - nodepairs_(15,_29) - nodepairs_(15,_30) <= 0
_C106: nodepairs_(0,_50) + nodepairs_(1,_50) + nodepairs_(10,_50)
 + nodepairs_(11,_50) + nodepairs_(12,_50) + nodepairs_(13,_50)
 + nodepairs_(14,_50) + nodepairs_(15,_50) + nodepairs_(16,_50)
 + nodepairs_(17,_50) + nodepairs_(18,_50) + nodepairs_(19,_50)
 + nodepairs_(20,_50) + nodepairs_(21,_50) + nodepairs_(22,_50)
 + nodepairs_(23,_50) + nodepairs_(24,_50) + nodepairs_(25,_50)
 + nodepairs_(26,_50) + nodepairs_(28,_50) + nodepairs_(3,_50)
 + nodepairs_(30,_50) + nodepairs_(31,_50) + nodepairs_(32,_50)
 + nodepairs_(33,_50) + nodepairs_(34,_50) + nodepairs_(35,_50)
 + nodepairs_(36,_50) + nodepairs_(37,_50) + nodepairs_(38,_50)
 + nodepairs_(39,_50) + nodepairs_(40,_50) + nodepairs_(41,_50)
 + nodepairs_(42,_50) + nodepairs_(44,_50) + nodepairs_(46,_50)
 + nodepairs_(47,_50) + nodepairs_(48,_50) + nodepairs_(49,_50)
 + nodepairs_(5,_50) + nodepairs_(50,_50) + nodepairs_(51,_50)
 + nodepairs_(52,_50) + nodepairs_(53,_50) + nodepairs_(54,_50)
 + nodepairs_(6,_50) + nodepairs_(7,_50) + nodepairs_(8,_50)
 + nodepairs_(9,_50) <= 1
_C1060: edgepairs_((14,_15),_(30,_31)) + edgepairs_((15,_16),_(30,_31))
 - nodepairs_(15,_30) - nodepairs_(15,_31) <= 0
_C1061: edgepairs_((14,_15),_(31,_32)) + edgepairs_((15,_16),_(31,_32))
 - nodepairs_(15,_31) - nodepairs_(15,_32) <= 0
_C1062: edgepairs_((14,_15),_(32,_33)) + edgepairs_((15,_16),_(32,_33))
 - nodepairs_(15,_32) - nodepairs_(15,_33) <= 0
_C1063: edgepairs_((14,_15),_(33,_34)) + edgepairs_((15,_16),_(33,_34))
 - nodepairs_(15,_33) - nodepairs_(15,_34) <= 0
_C1064: edgepairs_((14,_15),_(34,_35)) + edgepairs_((15,_16),_(34,_35))
 - nodepairs_(15,_34) - nodepairs_(15,_35) <= 0
_C1065: edgepairs_((14,_15),_(35,_36)) + edgepairs_((15,_16),_(35,_36))
 - nodepairs_(15,_35) - nodepairs_(15,_36) <= 0
_C1066: edgepairs_((14,_15),_(36,_37)) + edgepairs_((15,_16),_(36,_37))
 - nodepairs_(15,_36) - nodepairs_(15,_37) <= 0
_C1067: edgepairs_((14,_15),_(37,_38)) + edgepairs_((15,_16),_(37,_38))
 - nodepairs_(15,_37) - nodepairs_(15,_38) <= 0
_C1068: edgepairs_((14,_15),_(37,_39)) + edgepairs_((15,_16),_(37,_39))
 - nodepairs_(15,_37) - nodepairs_(15,_39) <= 0
_C1069: edgepairs_((14,_15),_(39,_40)) + edgepairs_((15,_16),_(39,_40))
 - nodepairs_(15,_39) - nodepairs_(15,_40) <= 0
_C107: nodepairs_(0,_51) + nodepairs_(1,_51) + nodepairs_(10,_51)
 + nodepairs_(11,_51) + nodepairs_(12,_51) + nodepairs_(13,_51)
 + nodepairs_(14,_51) + nodepairs_(15,_51) + nodepairs_(16,_51)
 + nodepairs_(17,_51) + nodepairs_(18,_51) + nodepairs_(19,_51)
 + nodepairs_(20,_51) + nodepairs_(21,_51) + nodepairs_(22,_51)
 + nodepairs_(23,_51) + nodepairs_(24,_51) + nodepairs_(25,_51)
 + nodepairs_(26,_51) + nodepairs_(28,_51) + nodepairs_(3,_51)
 + nodepairs_(30,_51) + nodepairs_(31,_51) + nodepairs_(32,_51)
 + nodepairs_(33,_51) + nodepairs_(34,_51) + nodepairs_(35,_51)
 + nodepairs_(36,_51) + nodepairs_(37,_51) + nodepairs_(38,_51)
 + nodepairs_(39,_51) + nodepairs_(40,_51) + nodepairs_(41,_51)
 + nodepairs_(42,_51) + nodepairs_(44,_51) + nodepairs_(46,_51)
 + nodepairs_(47,_51) + nodepairs_(48,_51) + nodepairs_(49,_51)
 + nodepairs_(5,_51) + nodepairs_(50,_51) + nodepairs_(51,_51)
 + nodepairs_(52,_51) + nodepairs_(53,_51) + nodepairs_(54,_51)
 + nodepairs_(6,_51) + nodepairs_(7,_51) + nodepairs_(8,_51)
 + nodepairs_(9,_51) <= 1
_C1070: - nodepairs_(15,_42) <= 0
_C1071: - nodepairs_(15,_42) <= 0
_C1072: edgepairs_((14,_15),_(42,_44)) + edgepairs_((15,_16),_(42,_44))
 - nodepairs_(15,_42) - nodepairs_(15,_44) <= 0
_C1073: edgepairs_((14,_15),_(44,_45)) + edgepairs_((15,_16),_(44,_45))
 - nodepairs_(15,_44) - nodepairs_(15,_45) <= 0
_C1074: edgepairs_((14,_15),_(45,_46)) + edgepairs_((15,_16),_(45,_46))
 - nodepairs_(15,_45) - nodepairs_(15,_46) <= 0
_C1075: edgepairs_((14,_15),_(46,_47)) + edgepairs_((15,_16),_(46,_47))
 - nodepairs_(15,_46) - nodepairs_(15,_47) <= 0
_C1076: edgepairs_((14,_15),_(47,_48)) + edgepairs_((15,_16),_(47,_48))
 - nodepairs_(15,_47) - nodepairs_(15,_48) <= 0
_C1077: edgepairs_((14,_15),_(48,_49)) + edgepairs_((15,_16),_(48,_49))
 - nodepairs_(15,_48) - nodepairs_(15,_49) <= 0
_C1078: edgepairs_((14,_15),_(49,_50)) + edgepairs_((15,_16),_(49,_50))
 - nodepairs_(15,_49) - nodepairs_(15,_50) <= 0
_C1079: edgepairs_((14,_15),_(50,_51)) + edgepairs_((15,_16),_(50,_51))
 - nodepairs_(15,_50) - nodepairs_(15,_51) <= 0
_C108: nodepairs_(0,_52) + nodepairs_(1,_52) + nodepairs_(10,_52)
 + nodepairs_(11,_52) + nodepairs_(12,_52) + nodepairs_(13,_52)
 + nodepairs_(14,_52) + nodepairs_(15,_52) + nodepairs_(16,_52)
 + nodepairs_(17,_52) + nodepairs_(18,_52) + nodepairs_(19,_52)
 + nodepairs_(20,_52) + nodepairs_(21,_52) + nodepairs_(22,_52)
 + nodepairs_(23,_52) + nodepairs_(24,_52) + nodepairs_(25,_52)
 + nodepairs_(26,_52) + nodepairs_(28,_52) + nodepairs_(3,_52)
 + nodepairs_(30,_52) + nodepairs_(31,_52) + nodepairs_(32,_52)
 + nodepairs_(33,_52) + nodepairs_(34,_52) + nodepairs_(35,_52)
 + nodepairs_(36,_52) + nodepairs_(37,_52) + nodepairs_(38,_52)
 + nodepairs_(39,_52) + nodepairs_(40,_52) + nodepairs_(41,_52)
 + nodepairs_(42,_52) + nodepairs_(44,_52) + nodepairs_(46,_52)
 + nodepairs_(47,_52) + nodepairs_(48,_52) + nodepairs_(49,_52)
 + nodepairs_(5,_52) + nodepairs_(50,_52) + nodepairs_(51,_52)
 + nodepairs_(52,_52) + nodepairs_(53,_52) + nodepairs_(54,_52)
 + nodepairs_(6,_52) + nodepairs_(7,_52) + nodepairs_(8,_52)
 + nodepairs_(9,_52) <= 1
_C1080: edgepairs_((14,_15),_(51,_52)) + edgepairs_((15,_16),_(51,_52))
 - nodepairs_(15,_51) - nodepairs_(15,_52) <= 0
_C1081: edgepairs_((14,_15),_(52,_53)) + edgepairs_((15,_16),_(52,_53))
 - nodepairs_(15,_52) - nodepairs_(15,_53) <= 0
_C1082: edgepairs_((14,_15),_(53,_54)) + edgepairs_((15,_16),_(53,_54))
 - nodepairs_(15,_53) - nodepairs_(15,_54) <= 0
_C1083: edgepairs_((15,_16),_(0,_1)) + edgepairs_((16,_17),_(0,_1))
 - nodepairs_(16,_0) - nodepairs_(16,_1) <= 0
_C1084: edgepairs_((15,_16),_(0,_17)) + edgepairs_((16,_17),_(0,_17))
 - nodepairs_(16,_0) - nodepairs_(16,_17) <= 0
_C1085: - nodepairs_(16,_0) <= 0
_C1086: - nodepairs_(16,_1) <= 0
_C1087: - nodepairs_(16,_3) <= 0
_C1088: - nodepairs_(16,_3) <= 0
_C1089: edgepairs_((15,_16),_(3,_5)) + edgepairs_((16,_17),_(3,_5))
 - nodepairs_(16,_3) - nodepairs_(16,_5) <= 0
_C109: nodepairs_(0,_53) + nodepairs_(1,_53) + nodepairs_(10,_53)
 + nodepairs_(11,_53) + nodepairs_(12,_53) + nodepairs_(13,_53)
 + nodepairs_(14,_53) + nodepairs_(15,_53) + nodepairs_(16,_53)
 + nodepairs_(17,_53) + nodepairs_(18,_53) + nodepairs_(19,_53)
 + nodepairs_(20,_53) + nodepairs_(21,_53) + nodepairs_(22,_53)
 + nodepairs_(23,_53) + nodepairs_(24,_53) + nodepairs_(25,_53)
 + nodepairs_(26,_53) + nodepairs_(28,_53) + nodepairs_(3,_53)
 + nodepairs_(30,_53) + nodepairs_(31,_53) + nodepairs_(32,_53)
 + nodepairs_(33,_53) + nodepairs_(34,_53) + nodepairs_(35,_53)
 + nodepairs_(36,_53) + nodepairs_(37,_53) + nodepairs_(38,_53)
 + nodepairs_(39,_53) + nodepairs_(40,_53) + nodepairs_(41,_53)
 + nodepairs_(42,_53) + nodepairs_(44,_53) + nodepairs_(46,_53)
 + nodepairs_(47,_53) + nodepairs_(48,_53) + nodepairs_(49,_53)
 + nodepairs_(5,_53) + nodepairs_(50,_53) + nodepairs_(51,_53)
 + nodepairs_(52,_53) + nodepairs_(53,_53) + nodepairs_(54,_53)
 + nodepairs_(6,_53) + nodepairs_(7,_53) + nodepairs_(8,_53)
 + nodepairs_(9,_53) <= 1
_C1090: edgepairs_((15,_16),_(5,_6)) + edgepairs_((16,_17),_(5,_6))
 - nodepairs_(16,_5) - nodepairs_(16,_6) <= 0
_C1091: edgepairs_((15,_16),_(6,_7)) + edgepairs_((16,_17),_(6,_7))
 - nodepairs_(16,_6) - nodepairs_(16,_7) <= 0
_C1092: edgepairs_((15,_16),_(7,_8)) + edgepairs_((16,_17),_(7,_8))
 - nodepairs_(16,_7) - nodepairs_(16,_8) <= 0
_C1093: edgepairs_((15,_16),_(8,_9)) + edgepairs_((16,_17),_(8,_9))
 - nodepairs_(16,_8) - nodepairs_(16,_9) <= 0
_C1094: edgepairs_((15,_16),_(9,_10)) + edgepairs_((16,_17),_(9,_10))
 - nodepairs_(16,_10) - nodepairs_(16,_9) <= 0
_C1095: edgepairs_((15,_16),_(10,_11)) + edgepairs_((16,_17),_(10,_11))
 - nodepairs_(16,_10) - nodepairs_(16,_11) <= 0
_C1096: edgepairs_((15,_16),_(11,_12)) + edgepairs_((16,_17),_(11,_12))
 - nodepairs_(16,_11) - nodepairs_(16,_12) <= 0
_C1097: edgepairs_((15,_16),_(12,_13)) + edgepairs_((16,_17),_(12,_13))
 - nodepairs_(16,_12) - nodepairs_(16,_13) <= 0
_C1098: edgepairs_((15,_16),_(13,_14)) + edgepairs_((16,_17),_(13,_14))
 - nodepairs_(16,_13) - nodepairs_(16,_14) <= 0
_C1099: edgepairs_((15,_16),_(14,_15)) + edgepairs_((16,_17),_(14,_15))
 - nodepairs_(16,_14) - nodepairs_(16,_15) <= 0
_C11: nodepairs_(10,_0) + nodepairs_(10,_1) + nodepairs_(10,_10)
 + nodepairs_(10,_11) + nodepairs_(10,_12) + nodepairs_(10,_13)
 + nodepairs_(10,_14) + nodepairs_(10,_15) + nodepairs_(10,_16)
 + nodepairs_(10,_17) + nodepairs_(10,_19) + nodepairs_(10,_21)
 + nodepairs_(10,_22) + nodepairs_(10,_23) + nodepairs_(10,_24)
 + nodepairs_(10,_25) + nodepairs_(10,_26) + nodepairs_(10,_27)
 + nodepairs_(10,_28) + nodepairs_(10,_29) + nodepairs_(10,_3)
 + nodepairs_(10,_30) + nodepairs_(10,_31) + nodepairs_(10,_32)
 + nodepairs_(10,_33) + nodepairs_(10,_34) + nodepairs_(10,_35)
 + nodepairs_(10,_36) + nodepairs_(10,_37) + nodepairs_(10,_38)
 + nodepairs_(10,_39) + nodepairs_(10,_40) + nodepairs_(10,_42)
 + nodepairs_(10,_44) + nodepairs_(10,_45) + nodepairs_(10,_46)
 + nodepairs_(10,_47) + nodepairs_(10,_48) + nodepairs_(10,_49)
 + nodepairs_(10,_5) + nodepairs_(10,_50) + nodepairs_(10,_51)
 + nodepairs_(10,_52) + nodepairs_(10,_53) + nodepairs_(10,_54)
 + nodepairs_(10,_6) + nodepairs_(10,_7) + nodepairs_(10,_8)
 + nodepairs_(10,_9) <= 1
_C110: nodepairs_(0,_54) + nodepairs_(1,_54) + nodepairs_(10,_54)
 + nodepairs_(11,_54) + nodepairs_(12,_54) + nodepairs_(13,_54)
 + nodepairs_(14,_54) + nodepairs_(15,_54) + nodepairs_(16,_54)
 + nodepairs_(17,_54) + nodepairs_(18,_54) + nodepairs_(19,_54)
 + nodepairs_(20,_54) + nodepairs_(21,_54) + nodepairs_(22,_54)
 + nodepairs_(23,_54) + nodepairs_(24,_54) + nodepairs_(25,_54)
 + nodepairs_(26,_54) + nodepairs_(28,_54) + nodepairs_(3,_54)
 + nodepairs_(30,_54) + nodepairs_(31,_54) + nodepairs_(32,_54)
 + nodepairs_(33,_54) + nodepairs_(34,_54) + nodepairs_(35,_54)
 + nodepairs_(36,_54) + nodepairs_(37,_54) + nodepairs_(38,_54)
 + nodepairs_(39,_54) + nodepairs_(40,_54) + nodepairs_(41,_54)
 + nodepairs_(42,_54) + nodepairs_(44,_54) + nodepairs_(46,_54)
 + nodepairs_(47,_54) + nodepairs_(48,_54) + nodepairs_(49,_54)
 + nodepairs_(5,_54) + nodepairs_(50,_54) + nodepairs_(51,_54)
 + nodepairs_(52,_54) + nodepairs_(53,_54) + nodepairs_(54,_54)
 + nodepairs_(6,_54) + nodepairs_(7,_54) + nodepairs_(8,_54)
 + nodepairs_(9,_54) <= 1
_C1100: edgepairs_((15,_16),_(15,_16)) + edgepairs_((16,_17),_(15,_16))
 - nodepairs_(16,_15) - nodepairs_(16,_16) <= 0
_C1101: - nodepairs_(16,_17) <= 0
_C1102: - nodepairs_(16,_19) <= 0
_C1103: - nodepairs_(16,_19) <= 0
_C1104: edgepairs_((15,_16),_(19,_21)) + edgepairs_((16,_17),_(19,_21))
 - nodepairs_(16,_19) - nodepairs_(16,_21) <= 0
_C1105: edgepairs_((15,_16),_(21,_22)) + edgepairs_((16,_17),_(21,_22))
 - nodepairs_(16,_21) - nodepairs_(16,_22) <= 0
_C1106: edgepairs_((15,_16),_(22,_23)) + edgepairs_((16,_17),_(22,_23))
 - nodepairs_(16,_22) - nodepairs_(16,_23) <= 0
_C1107: edgepairs_((15,_16),_(23,_24)) + edgepairs_((16,_17),_(23,_24))
 - nodepairs_(16,_23) - nodepairs_(16,_24) <= 0
_C1108: edgepairs_((15,_16),_(24,_25)) + edgepairs_((16,_17),_(24,_25))
 - nodepairs_(16,_24) - nodepairs_(16,_25) <= 0
_C1109: edgepairs_((15,_16),_(25,_26)) + edgepairs_((16,_17),_(25,_26))
 - nodepairs_(16,_25) - nodepairs_(16,_26) <= 0
_C111: edgepairs_((0,_1),_(0,_1)) + edgepairs_((0,_1),_(0,_17))
 + edgepairs_((0,_1),_(10,_11)) + edgepairs_((0,_1),_(11,_12))
 + edgepairs_((0,_1),_(12,_13)) + edgepairs_((0,_1),_(13,_14))
 + edgepairs_((0,_1),_(14,_15)) + edgepairs_((0,_1),_(15,_16))
 + edgepairs_((0,_1),_(19,_21)) + edgepairs_((0,_1),_(21,_22))
 + edgepairs_((0,_1),_(22,_23)) + edgepairs_((0,_1),_(23,_24))
 + edgepairs_((0,_1),_(24,_25)) + edgepairs_((0,_1),_(25,_26))
 + edgepairs_((0,_1),_(26,_27)) + edgepairs_((0,_1),_(27,_28))
 + edgepairs_((0,_1),_(28,_29)) + edgepairs_((0,_1),_(29,_30))
 + edgepairs_((0,_1),_(3,_5)) + edgepairs_((0,_1),_(30,_31))
 + edgepairs_((0,_1),_(31,_32)) + edgepairs_((0,_1),_(32,_33))
 + edgepairs_((0,_1),_(33,_34)) + edgepairs_((0,_1),_(34,_35))
 + edgepairs_((0,_1),_(35,_36)) + edgepairs_((0,_1),_(36,_37))
 + edgepairs_((0,_1),_(37,_38)) + edgepairs_((0,_1),_(37,_39))
 + edgepairs_((0,_1),_(39,_40)) + edgepairs_((0,_1),_(42,_44))
 + edgepairs_((0,_1),_(44,_45)) + edgepairs_((0,_1),_(45,_46))
 + edgepairs_((0,_1),_(46,_47)) + edgepairs_((0,_1),_(47,_48))
 + edgepairs_((0,_1),_(48,_49)) + edgepairs_((0,_1),_(49,_50))
 + edgepairs_((0,_1),_(5,_6)) + edgepairs_((0,_1),_(50,_51))
 + edgepairs_((0,_1),_(51,_52)) + edgepairs_((0,_1),_(52,_53))
 + edgepairs_((0,_1),_(53,_54)) + edgepairs_((0,_1),_(6,_7))
 + edgepairs_((0,_1),_(7,_8)) + edgepairs_((0,_1),_(8,_9))
 + edgepairs_((0,_1),_(9,_10)) + edgepairs_((0,_1),__1) = 1
_C1110: edgepairs_((15,_16),_(26,_27)) + edgepairs_((16,_17),_(26,_27))
 - nodepairs_(16,_26) - nodepairs_(16,_27) <= 0
_C1111: edgepairs_((15,_16),_(27,_28)) + edgepairs_((16,_17),_(27,_28))
 - nodepairs_(16,_27) - nodepairs_(16,_28) <= 0
_C1112: edgepairs_((15,_16),_(28,_29)) + edgepairs_((16,_17),_(28,_29))
 - nodepairs_(16,_28) - nodepairs_(16,_29) <= 0
_C1113: edgepairs_((15,_16),_(29,_30)) + edgepairs_((16,_17),_(29,_30))
 - nodepairs_(16,_29) - nodepairs_(16,_30) <= 0
_C1114: edgepairs_((15,_16),_(30,_31)) + edgepairs_((16,_17),_(30,_31))
 - nodepairs_(16,_30) - nodepairs_(16,_31) <= 0
_C1115: edgepairs_((15,_16),_(31,_32)) + edgepairs_((16,_17),_(31,_32))
 - nodepairs_(16,_31) - nodepairs_(16,_32) <= 0
_C1116: edgepairs_((15,_16),_(32,_33)) + edgepairs_((16,_17),_(32,_33))
 - nodepairs_(16,_32) - nodepairs_(16,_33) <= 0
_C1117: edgepairs_((15,_16),_(33,_34)) + edgepairs_((16,_17),_(33,_34))
 - nodepairs_(16,_33) - nodepairs_(16,_34) <= 0
_C1118: edgepairs_((15,_16),_(34,_35)) + edgepairs_((16,_17),_(34,_35))
 - nodepairs_(16,_34) - nodepairs_(16,_35) <= 0
_C1119: edgepairs_((15,_16),_(35,_36)) + edgepairs_((16,_17),_(35,_36))
 - nodepairs_(16,_35) - nodepairs_(16,_36) <= 0
_C112: edgepairs_((0,_26),_(0,_1)) + edgepairs_((0,_26),_(0,_17))
 + edgepairs_((0,_26),_(10,_11)) + edgepairs_((0,_26),_(11,_12))
 + edgepairs_((0,_26),_(12,_13)) + edgepairs_((0,_26),_(13,_14))
 + edgepairs_((0,_26),_(14,_15)) + edgepairs_((0,_26),_(15,_16))
 + edgepairs_((0,_26),_(19,_21)) + edgepairs_((0,_26),_(21,_22))
 + edgepairs_((0,_26),_(22,_23)) + edgepairs_((0,_26),_(23,_24))
 + edgepairs_((0,_26),_(24,_25)) + edgepairs_((0,_26),_(25,_26))
 + edgepairs_((0,_26),_(26,_27)) + edgepairs_((0,_26),_(27,_28))
 + edgepairs_((0,_26),_(28,_29)) + edgepairs_((0,_26),_(29,_30))
 + edgepairs_((0,_26),_(3,_5)) + edgepairs_((0,_26),_(30,_31))
 + edgepairs_((0,_26),_(31,_32)) + edgepairs_((0,_26),_(32,_33))
 + edgepairs_((0,_26),_(33,_34)) + edgepairs_((0,_26),_(34,_35))
 + edgepairs_((0,_26),_(35,_36)) + edgepairs_((0,_26),_(36,_37))
 + edgepairs_((0,_26),_(37,_38)) + edgepairs_((0,_26),_(37,_39))
 + edgepairs_((0,_26),_(39,_40)) + edgepairs_((0,_26),_(42,_44))
 + edgepairs_((0,_26),_(44,_45)) + edgepairs_((0,_26),_(45,_46))
 + edgepairs_((0,_26),_(46,_47)) + edgepairs_((0,_26),_(47,_48))
 + edgepairs_((0,_26),_(48,_49)) + edgepairs_((0,_26),_(49,_50))
 + edgepairs_((0,_26),_(5,_6)) + edgepairs_((0,_26),_(50,_51))
 + edgepairs_((0,_26),_(51,_52)) + edgepairs_((0,_26),_(52,_53))
 + edgepairs_((0,_26),_(53,_54)) + edgepairs_((0,_26),_(6,_7))
 + edgepairs_((0,_26),_(7,_8)) + edgepairs_((0,_26),_(8,_9))
 + edgepairs_((0,_26),_(9,_10)) + edgepairs_((0,_26),__1) = 1
_C1120: edgepairs_((15,_16),_(36,_37)) + edgepairs_((16,_17),_(36,_37))
 - nodepairs_(16,_36) - nodepairs_(16,_37) <= 0
_C1121: edgepairs_((15,_16),_(37,_38)) + edgepairs_((16,_17),_(37,_38))
 - nodepairs_(16,_37) - nodepairs_(16,_38) <= 0
_C1122: edgepairs_((15,_16),_(37,_39)) + edgepairs_((16,_17),_(37,_39))
 - nodepairs_(16,_37) - nodepairs_(16,_39) <= 0
_C1123: edgepairs_((15,_16),_(39,_40)) + edgepairs_((16,_17),_(39,_40))
 - nodepairs_(16,_39) - nodepairs_(16,_40) <= 0
_C1124: - nodepairs_(16,_42) <= 0
_C1125: - nodepairs_(16,_42) <= 0
_C1126: edgepairs_((15,_16),_(42,_44)) + edgepairs_((16,_17),_(42,_44))
 - nodepairs_(16,_42) - nodepairs_(16,_44) <= 0
_C1127: edgepairs_((15,_16),_(44,_45)) + edgepairs_((16,_17),_(44,_45))
 - nodepairs_(16,_44) - nodepairs_(16,_45) <= 0
_C1128: edgepairs_((15,_16),_(45,_46)) + edgepairs_((16,_17),_(45,_46))
 - nodepairs_(16,_45) - nodepairs_(16,_46) <= 0
_C1129: edgepairs_((15,_16),_(46,_47)) + edgepairs_((16,_17),_(46,_47))
 - nodepairs_(16,_46) - nodepairs_(16,_47) <= 0
_C113: edgepairs_((0,_43),_(0,_41)) + edgepairs_((0,_43),_(1,_2))
 + edgepairs_((0,_43),_(17,_18)) + edgepairs_((0,_43),_(18,_19))
 + edgepairs_((0,_43),_(19,_20)) + edgepairs_((0,_43),_(2,_3))
 + edgepairs_((0,_43),_(3,_4)) + edgepairs_((0,_43),_(41,_42))
 + edgepairs_((0,_43),_(42,_43)) + edgepairs_((0,_43),__1) = 1
_C1130: edgepairs_((15,_16),_(47,_48)) + edgepairs_((16,_17),_(47,_48))
 - nodepairs_(16,_47) - nodepairs_(16,_48) <= 0
_C1131: edgepairs_((15,_16),_(48,_49)) + edgepairs_((16,_17),_(48,_49))
 - nodepairs_(16,_48) - nodepairs_(16,_49) <= 0
_C1132: edgepairs_((15,_16),_(49,_50)) + edgepairs_((16,_17),_(49,_50))
 - nodepairs_(16,_49) - nodepairs_(16,_50) <= 0
_C1133: edgepairs_((15,_16),_(50,_51)) + edgepairs_((16,_17),_(50,_51))
 - nodepairs_(16,_50) - nodepairs_(16,_51) <= 0
_C1134: edgepairs_((15,_16),_(51,_52)) + edgepairs_((16,_17),_(51,_52))
 - nodepairs_(16,_51) - nodepairs_(16,_52) <= 0
_C1135: edgepairs_((15,_16),_(52,_53)) + edgepairs_((16,_17),_(52,_53))
 - nodepairs_(16,_52) - nodepairs_(16,_53) <= 0
_C1136: edgepairs_((15,_16),_(53,_54)) + edgepairs_((16,_17),_(53,_54))
 - nodepairs_(16,_53) - nodepairs_(16,_54) <= 0
_C1137: edgepairs_((16,_17),_(0,_1)) + edgepairs_((17,_18),_(0,_1))
 - nodepairs_(17,_0) - nodepairs_(17,_1) <= 0
_C1138: edgepairs_((16,_17),_(0,_17)) + edgepairs_((17,_18),_(0,_17))
 - nodepairs_(17,_0) - nodepairs_(17,_17) <= 0
_C1139: - nodepairs_(17,_0) <= 0
_C114: edgepairs_((1,_2),_(0,_41)) + edgepairs_((1,_2),_(1,_2))
 + edgepairs_((1,_2),_(17,_18)) + edgepairs_((1,_2),_(18,_19))
 + edgepairs_((1,_2),_(19,_20)) + edgepairs_((1,_2),_(2,_3))
 + edgepairs_((1,_2),_(3,_4)) + edgepairs_((1,_2),_(41,_42))
 + edgepairs_((1,_2),_(42,_43)) + edgepairs_((1,_2),__1) = 1
_C1140: - nodepairs_(17,_1) <= 0
_C1141: - nodepairs_(17,_3) <= 0
_C1142: - nodepairs_(17,_3) <= 0
_C1143: edgepairs_((16,_17),_(3,_5)) + edgepairs_((17,_18),_(3,_5))
 - nodepairs_(17,_3) - nodepairs_(17,_5) <= 0
_C1144: edgepairs_((16,_17),_(5,_6)) + edgepairs_((17,_18),_(5,_6))
 - nodepairs_(17,_5) - nodepairs_(17,_6) <= 0
_C1145: edgepairs_((16,_17),_(6,_7)) + edgepairs_((17,_18),_(6,_7))
 - nodepairs_(17,_6) - nodepairs_(17,_7) <= 0
_C1146: edgepairs_((16,_17),_(7,_8)) + edgepairs_((17,_18),_(7,_8))
 - nodepairs_(17,_7) - nodepairs_(17,_8) <= 0
_C1147: edgepairs_((16,_17),_(8,_9)) + edgepairs_((17,_18),_(8,_9))
 - nodepairs_(17,_8) - nodepairs_(17,_9) <= 0
_C1148: edgepairs_((16,_17),_(9,_10)) + edgepairs_((17,_18),_(9,_10))
 - nodepairs_(17,_10) - nodepairs_(17,_9) <= 0
_C1149: edgepairs_((16,_17),_(10,_11)) + edgepairs_((17,_18),_(10,_11))
 - nodepairs_(17,_10) - nodepairs_(17,_11) <= 0
_C115: edgepairs_((2,_3),_(0,_41)) + edgepairs_((2,_3),_(1,_2))
 + edgepairs_((2,_3),_(17,_18)) + edgepairs_((2,_3),_(18,_19))
 + edgepairs_((2,_3),_(19,_20)) + edgepairs_((2,_3),_(2,_3))
 + edgepairs_((2,_3),_(3,_4)) + edgepairs_((2,_3),_(41,_42))
 + edgepairs_((2,_3),_(42,_43)) + edgepairs_((2,_3),__1) = 1
_C1150: edgepairs_((16,_17),_(11,_12)) + edgepairs_((17,_18),_(11,_12))
 - nodepairs_(17,_11) - nodepairs_(17,_12) <= 0
_C1151: edgepairs_((16,_17),_(12,_13)) + edgepairs_((17,_18),_(12,_13))
 - nodepairs_(17,_12) - nodepairs_(17,_13) <= 0
_C1152: edgepairs_((16,_17),_(13,_14)) + edgepairs_((17,_18),_(13,_14))
 - nodepairs_(17,_13) - nodepairs_(17,_14) <= 0
_C1153: edgepairs_((16,_17),_(14,_15)) + edgepairs_((17,_18),_(14,_15))
 - nodepairs_(17,_14) - nodepairs_(17,_15) <= 0
_C1154: edgepairs_((16,_17),_(15,_16)) + edgepairs_((17,_18),_(15,_16))
 - nodepairs_(17,_15) - nodepairs_(17,_16) <= 0
_C1155: - nodepairs_(17,_17) <= 0
_C1156: - nodepairs_(17,_19) <= 0
_C1157: - nodepairs_(17,_19) <= 0
_C1158: edgepairs_((16,_17),_(19,_21)) + edgepairs_((17,_18),_(19,_21))
 - nodepairs_(17,_19) - nodepairs_(17,_21) <= 0
_C1159: edgepairs_((16,_17),_(21,_22)) + edgepairs_((17,_18),_(21,_22))
 - nodepairs_(17,_21) - nodepairs_(17,_22) <= 0
_C116: edgepairs_((3,_4),_(0,_41)) + edgepairs_((3,_4),_(1,_2))
 + edgepairs_((3,_4),_(17,_18)) + edgepairs_((3,_4),_(18,_19))
 + edgepairs_((3,_4),_(19,_20)) + edgepairs_((3,_4),_(2,_3))
 + edgepairs_((3,_4),_(3,_4)) + edgepairs_((3,_4),_(41,_42))
 + edgepairs_((3,_4),_(42,_43)) + edgepairs_((3,_4),__1) = 1
_C1160: edgepairs_((16,_17),_(22,_23)) + edgepairs_((17,_18),_(22,_23))
 - nodepairs_(17,_22) - nodepairs_(17,_23) <= 0
_C1161: edgepairs_((16,_17),_(23,_24)) + edgepairs_((17,_18),_(23,_24))
 - nodepairs_(17,_23) - nodepairs_(17,_24) <= 0
_C1162: edgepairs_((16,_17),_(24,_25)) + edgepairs_((17,_18),_(24,_25))
 - nodepairs_(17,_24) - nodepairs_(17,_25) <= 0
_C1163: edgepairs_((16,_17),_(25,_26)) + edgepairs_((17,_18),_(25,_26))
 - nodepairs_(17,_25) - nodepairs_(17,_26) <= 0
_C1164: edgepairs_((16,_17),_(26,_27)) + edgepairs_((17,_18),_(26,_27))
 - nodepairs_(17,_26) - nodepairs_(17,_27) <= 0
_C1165: edgepairs_((16,_17),_(27,_28)) + edgepairs_((17,_18),_(27,_28))
 - nodepairs_(17,_27) - nodepairs_(17,_28) <= 0
_C1166: edgepairs_((16,_17),_(28,_29)) + edgepairs_((17,_18),_(28,_29))
 - nodepairs_(17,_28) - nodepairs_(17,_29) <= 0
_C1167: edgepairs_((16,_17),_(29,_30)) + edgepairs_((17,_18),_(29,_30))
 - nodepairs_(17,_29) - nodepairs_(17,_30) <= 0
_C1168: edgepairs_((16,_17),_(30,_31)) + edgepairs_((17,_18),_(30,_31))
 - nodepairs_(17,_30) - nodepairs_(17,_31) <= 0
_C1169: edgepairs_((16,_17),_(31,_32)) + edgepairs_((17,_18),_(31,_32))
 - nodepairs_(17,_31) - nodepairs_(17,_32) <= 0
_C117: edgepairs_((3,_5),_(0,_1)) + edgepairs_((3,_5),_(0,_17))
 + edgepairs_((3,_5),_(10,_11)) + edgepairs_((3,_5),_(11,_12))
 + edgepairs_((3,_5),_(12,_13)) + edgepairs_((3,_5),_(13,_14))
 + edgepairs_((3,_5),_(14,_15)) + edgepairs_((3,_5),_(15,_16))
 + edgepairs_((3,_5),_(19,_21)) + edgepairs_((3,_5),_(21,_22))
 + edgepairs_((3,_5),_(22,_23)) + edgepairs_((3,_5),_(23,_24))
 + edgepairs_((3,_5),_(24,_25)) + edgepairs_((3,_5),_(25,_26))
 + edgepairs_((3,_5),_(26,_27)) + edgepairs_((3,_5),_(27,_28))
 + edgepairs_((3,_5),_(28,_29)) + edgepairs_((3,_5),_(29,_30))
 + edgepairs_((3,_5),_(3,_5)) + edgepairs_((3,_5),_(30,_31))
 + edgepairs_((3,_5),_(31,_32)) + edgepairs_((3,_5),_(32,_33))
 + edgepairs_((3,_5),_(33,_34)) + edgepairs_((3,_5),_(34,_35))
 + edgepairs_((3,_5),_(35,_36)) + edgepairs_((3,_5),_(36,_37))
 + edgepairs_((3,_5),_(37,_38)) + edgepairs_((3,_5),_(37,_39))
 + edgepairs_((3,_5),_(39,_40)) + edgepairs_((3,_5),_(42,_44))
 + edgepairs_((3,_5),_(44,_45)) + edgepairs_((3,_5),_(45,_46))
 + edgepairs_((3,_5),_(46,_47)) + edgepairs_((3,_5),_(47,_48))
 + edgepairs_((3,_5),_(48,_49)) + edgepairs_((3,_5),_(49,_50))
 + edgepairs_((3,_5),_(5,_6)) + edgepairs_((3,_5),_(50,_51))
 + edgepairs_((3,_5),_(51,_52)) + edgepairs_((3,_5),_(52,_53))
 + edgepairs_((3,_5),_(53,_54)) + edgepairs_((3,_5),_(6,_7))
 + edgepairs_((3,_5),_(7,_8)) + edgepairs_((3,_5),_(8,_9))
 + edgepairs_((3,_5),_(9,_10)) + edgepairs_((3,_5),__1) = 1
_C1170: edgepairs_((16,_17),_(32,_33)) + edgepairs_((17,_18),_(32,_33))
 - nodepairs_(17,_32) - nodepairs_(17,_33) <= 0
_C1171: edgepairs_((16,_17),_(33,_34)) + edgepairs_((17,_18),_(33,_34))
 - nodepairs_(17,_33) - nodepairs_(17,_34) <= 0
_C1172: edgepairs_((16,_17),_(34,_35)) + edgepairs_((17,_18),_(34,_35))
 - nodepairs_(17,_34) - nodepairs_(17,_35) <= 0
_C1173: edgepairs_((16,_17),_(35,_36)) + edgepairs_((17,_18),_(35,_36))
 - nodepairs_(17,_35) - nodepairs_(17,_36) <= 0
_C1174: edgepairs_((16,_17),_(36,_37)) + edgepairs_((17,_18),_(36,_37))
 - nodepairs_(17,_36) - nodepairs_(17,_37) <= 0
_C1175: edgepairs_((16,_17),_(37,_38)) + edgepairs_((17,_18),_(37,_38))
 - nodepairs_(17,_37) - nodepairs_(17,_38) <= 0
_C1176: edgepairs_((16,_17),_(37,_39)) + edgepairs_((17,_18),_(37,_39))
 - nodepairs_(17,_37) - nodepairs_(17,_39) <= 0
_C1177: edgepairs_((16,_17),_(39,_40)) + edgepairs_((17,_18),_(39,_40))
 - nodepairs_(17,_39) - nodepairs_(17,_40) <= 0
_C1178: - nodepairs_(17,_42) <= 0
_C1179: - nodepairs_(17,_42) <= 0
_C118: edgepairs_((5,_6),_(0,_1)) + edgepairs_((5,_6),_(0,_17))
 + edgepairs_((5,_6),_(10,_11)) + edgepairs_((5,_6),_(11,_12))
 + edgepairs_((5,_6),_(12,_13)) + edgepairs_((5,_6),_(13,_14))
 + edgepairs_((5,_6),_(14,_15)) + edgepairs_((5,_6),_(15,_16))
 + edgepairs_((5,_6),_(19,_21)) + edgepairs_((5,_6),_(21,_22))
 + edgepairs_((5,_6),_(22,_23)) + edgepairs_((5,_6),_(23,_24))
 + edgepairs_((5,_6),_(24,_25)) + edgepairs_((5,_6),_(25,_26))
 + edgepairs_((5,_6),_(26,_27)) + edgepairs_((5,_6),_(27,_28))
 + edgepairs_((5,_6),_(28,_29)) + edgepairs_((5,_6),_(29,_30))
 + edgepairs_((5,_6),_(3,_5)) + edgepairs_((5,_6),_(30,_31))
 + edgepairs_((5,_6),_(31,_32)) + edgepairs_((5,_6),_(32,_33))
 + edgepairs_((5,_6),_(33,_34)) + edgepairs_((5,_6),_(34,_35))
 + edgepairs_((5,_6),_(35,_36)) + edgepairs_((5,_6),_(36,_37))
 + edgepairs_((5,_6),_(37,_38)) + edgepairs_((5,_6),_(37,_39))
 + edgepairs_((5,_6),_(39,_40)) + edgepairs_((5,_6),_(42,_44))
 + edgepairs_((5,_6),_(44,_45)) + edgepairs_((5,_6),_(45,_46))
 + edgepairs_((5,_6),_(46,_47)) + edgepairs_((5,_6),_(47,_48))
 + edgepairs_((5,_6),_(48,_49)) + edgepairs_((5,_6),_(49,_50))
 + edgepairs_((5,_6),_(5,_6)) + edgepairs_((5,_6),_(50,_51))
 + edgepairs_((5,_6),_(51,_52)) + edgepairs_((5,_6),_(52,_53))
 + edgepairs_((5,_6),_(53,_54)) + edgepairs_((5,_6),_(6,_7))
 + edgepairs_((5,_6),_(7,_8)) + edgepairs_((5,_6),_(8,_9))
 + edgepairs_((5,_6),_(9,_10)) + edgepairs_((5,_6),__1) = 1
_C1180: edgepairs_((16,_17),_(42,_44)) + edgepairs_((17,_18),_(42,_44))
 - nodepairs_(17,_42) - nodepairs_(17,_44) <= 0
_C1181: edgepairs_((16,_17),_(44,_45)) + edgepairs_((17,_18),_(44,_45))
 - nodepairs_(17,_44) - nodepairs_(17,_45) <= 0
_C1182: edgepairs_((16,_17),_(45,_46)) + edgepairs_((17,_18),_(45,_46))
 - nodepairs_(17,_45) - nodepairs_(17,_46) <= 0
_C1183: edgepairs_((16,_17),_(46,_47)) + edgepairs_((17,_18),_(46,_47))
 - nodepairs_(17,_46) - nodepairs_(17,_47) <= 0
_C1184: edgepairs_((16,_17),_(47,_48)) + edgepairs_((17,_18),_(47,_48))
 - nodepairs_(17,_47) - nodepairs_(17,_48) <= 0
_C1185: edgepairs_((16,_17),_(48,_49)) + edgepairs_((17,_18),_(48,_49))
 - nodepairs_(17,_48) - nodepairs_(17,_49) <= 0
_C1186: edgepairs_((16,_17),_(49,_50)) + edgepairs_((17,_18),_(49,_50))
 - nodepairs_(17,_49) - nodepairs_(17,_50) <= 0
_C1187: edgepairs_((16,_17),_(50,_51)) + edgepairs_((17,_18),_(50,_51))
 - nodepairs_(17,_50) - nodepairs_(17,_51) <= 0
_C1188: edgepairs_((16,_17),_(51,_52)) + edgepairs_((17,_18),_(51,_52))
 - nodepairs_(17,_51) - nodepairs_(17,_52) <= 0
_C1189: edgepairs_((16,_17),_(52,_53)) + edgepairs_((17,_18),_(52,_53))
 - nodepairs_(17,_52) - nodepairs_(17,_53) <= 0
_C119: edgepairs_((6,_7),_(0,_1)) + edgepairs_((6,_7),_(0,_17))
 + edgepairs_((6,_7),_(10,_11)) + edgepairs_((6,_7),_(11,_12))
 + edgepairs_((6,_7),_(12,_13)) + edgepairs_((6,_7),_(13,_14))
 + edgepairs_((6,_7),_(14,_15)) + edgepairs_((6,_7),_(15,_16))
 + edgepairs_((6,_7),_(19,_21)) + edgepairs_((6,_7),_(21,_22))
 + edgepairs_((6,_7),_(22,_23)) + edgepairs_((6,_7),_(23,_24))
 + edgepairs_((6,_7),_(24,_25)) + edgepairs_((6,_7),_(25,_26))
 + edgepairs_((6,_7),_(26,_27)) + edgepairs_((6,_7),_(27,_28))
 + edgepairs_((6,_7),_(28,_29)) + edgepairs_((6,_7),_(29,_30))
 + edgepairs_((6,_7),_(3,_5)) + edgepairs_((6,_7),_(30,_31))
 + edgepairs_((6,_7),_(31,_32)) + edgepairs_((6,_7),_(32,_33))
 + edgepairs_((6,_7),_(33,_34)) + edgepairs_((6,_7),_(34,_35))
 + edgepairs_((6,_7),_(35,_36)) + edgepairs_((6,_7),_(36,_37))
 + edgepairs_((6,_7),_(37,_38)) + edgepairs_((6,_7),_(37,_39))
 + edgepairs_((6,_7),_(39,_40)) + edgepairs_((6,_7),_(42,_44))
 + edgepairs_((6,_7),_(44,_45)) + edgepairs_((6,_7),_(45,_46))
 + edgepairs_((6,_7),_(46,_47)) + edgepairs_((6,_7),_(47,_48))
 + edgepairs_((6,_7),_(48,_49)) + edgepairs_((6,_7),_(49,_50))
 + edgepairs_((6,_7),_(5,_6)) + edgepairs_((6,_7),_(50,_51))
 + edgepairs_((6,_7),_(51,_52)) + edgepairs_((6,_7),_(52,_53))
 + edgepairs_((6,_7),_(53,_54)) + edgepairs_((6,_7),_(6,_7))
 + edgepairs_((6,_7),_(7,_8)) + edgepairs_((6,_7),_(8,_9))
 + edgepairs_((6,_7),_(9,_10)) + edgepairs_((6,_7),__1) = 1
_C1190: edgepairs_((16,_17),_(53,_54)) + edgepairs_((17,_18),_(53,_54))
 - nodepairs_(17,_53) - nodepairs_(17,_54) <= 0
_C1191: edgepairs_((17,_18),_(0,_1)) + edgepairs_((18,_19),_(0,_1))
 - nodepairs_(18,_0) - nodepairs_(18,_1) <= 0
_C1192: edgepairs_((17,_18),_(0,_17)) + edgepairs_((18,_19),_(0,_17))
 - nodepairs_(18,_0) - nodepairs_(18,_17) <= 0
_C1193: - nodepairs_(18,_0) <= 0
_C1194: - nodepairs_(18,_1) <= 0
_C1195: - nodepairs_(18,_3) <= 0
_C1196: - nodepairs_(18,_3) <= 0
_C1197: edgepairs_((17,_18),_(3,_5)) + edgepairs_((18,_19),_(3,_5))
 - nodepairs_(18,_3) - nodepairs_(18,_5) <= 0
_C1198: edgepairs_((17,_18),_(5,_6)) + edgepairs_((18,_19),_(5,_6))
 - nodepairs_(18,_5) - nodepairs_(18,_6) <= 0
_C1199: edgepairs_((17,_18),_(6,_7)) + edgepairs_((18,_19),_(6,_7))
 - nodepairs_(18,_6) - nodepairs_(18,_7) <= 0
_C12: nodepairs_(11,_0) + nodepairs_(11,_1) + nodepairs_(11,_10)
 + nodepairs_(11,_11) + nodepairs_(11,_12) + nodepairs_(11,_13)
 + nodepairs_(11,_14) + nodepairs_(11,_15) + nodepairs_(11,_16)
 + nodepairs_(11,_17) + nodepairs_(11,_19) + nodepairs_(11,_21)
 + nodepairs_(11,_22) + nodepairs_(11,_23) + nodepairs_(11,_24)
 + nodepairs_(11,_25) + nodepairs_(11,_26) + nodepairs_(11,_27)
 + nodepairs_(11,_28) + nodepairs_(11,_29) + nodepairs_(11,_3)
 + nodepairs_(11,_30) + nodepairs_(11,_31) + nodepairs_(11,_32)
 + nodepairs_(11,_33) + nodepairs_(11,_34) + nodepairs_(11,_35)
 + nodepairs_(11,_36) + nodepairs_(11,_37) + nodepairs_(11,_38)
 + nodepairs_(11,_39) + nodepairs_(11,_40) + nodepairs_(11,_42)
 + nodepairs_(11,_44) + nodepairs_(11,_45) + nodepairs_(11,_46)
 + nodepairs_(11,_47) + nodepairs_(11,_48) + nodepairs_(11,_49)
 + nodepairs_(11,_5) + nodepairs_(11,_50) + nodepairs_(11,_51)
 + nodepairs_(11,_52) + nodepairs_(11,_53) + nodepairs_(11,_54)
 + nodepairs_(11,_6) + nodepairs_(11,_7) + nodepairs_(11,_8)
 + nodepairs_(11,_9) <= 1
_C120: edgepairs_((7,_8),_(0,_1)) + edgepairs_((7,_8),_(0,_17))
 + edgepairs_((7,_8),_(10,_11)) + edgepairs_((7,_8),_(11,_12))
 + edgepairs_((7,_8),_(12,_13)) + edgepairs_((7,_8),_(13,_14))
 + edgepairs_((7,_8),_(14,_15)) + edgepairs_((7,_8),_(15,_16))
 + edgepairs_((7,_8),_(19,_21)) + edgepairs_((7,_8),_(21,_22))
 + edgepairs_((7,_8),_(22,_23)) + edgepairs_((7,_8),_(23,_24))
 + edgepairs_((7,_8),_(24,_25)) + edgepairs_((7,_8),_(25,_26))
 + edgepairs_((7,_8),_(26,_27)) + edgepairs_((7,_8),_(27,_28))
 + edgepairs_((7,_8),_(28,_29)) + edgepairs_((7,_8),_(29,_30))
 + edgepairs_((7,_8),_(3,_5)) + edgepairs_((7,_8),_(30,_31))
 + edgepairs_((7,_8),_(31,_32)) + edgepairs_((7,_8),_(32,_33))
 + edgepairs_((7,_8),_(33,_34)) + edgepairs_((7,_8),_(34,_35))
 + edgepairs_((7,_8),_(35,_36)) + edgepairs_((7,_8),_(36,_37))
 + edgepairs_((7,_8),_(37,_38)) + edgepairs_((7,_8),_(37,_39))
 + edgepairs_((7,_8),_(39,_40)) + edgepairs_((7,_8),_(42,_44))
 + edgepairs_((7,_8),_(44,_45)) + edgepairs_((7,_8),_(45,_46))
 + edgepairs_((7,_8),_(46,_47)) + edgepairs_((7,_8),_(47,_48))
 + edgepairs_((7,_8),_(48,_49)) + edgepairs_((7,_8),_(49,_50))
 + edgepairs_((7,_8),_(5,_6)) + edgepairs_((7,_8),_(50,_51))
 + edgepairs_((7,_8),_(51,_52)) + edgepairs_((7,_8),_(52,_53))
 + edgepairs_((7,_8),_(53,_54)) + edgepairs_((7,_8),_(6,_7))
 + edgepairs_((7,_8),_(7,_8)) + edgepairs_((7,_8),_(8,_9))
 + edgepairs_((7,_8),_(9,_10)) + edgepairs_((7,_8),__1) = 1
_C1200: edgepairs_((17,_18),_(7,_8)) + edgepairs_((18,_19),_(7,_8))
 - nodepairs_(18,_7) - nodepairs_(18,_8) <= 0
_C1201: edgepairs_((17,_18),_(8,_9)) + edgepairs_((18,_19),_(8,_9))
 - nodepairs_(18,_8) - nodepairs_(18,_9) <= 0
_C1202: edgepairs_((17,_18),_(9,_10)) + edgepairs_((18,_19),_(9,_10))
 - nodepairs_(18,_10) - nodepairs_(18,_9) <= 0
_C1203: edgepairs_((17,_18),_(10,_11)) + edgepairs_((18,_19),_(10,_11))
 - nodepairs_(18,_10) - nodepairs_(18,_11) <= 0
_C1204: edgepairs_((17,_18),_(11,_12)) + edgepairs_((18,_19),_(11,_12))
 - nodepairs_(18,_11) - nodepairs_(18,_12) <= 0
_C1205: edgepairs_((17,_18),_(12,_13)) + edgepairs_((18,_19),_(12,_13))
 - nodepairs_(18,_12) - nodepairs_(18,_13) <= 0
_C1206: edgepairs_((17,_18),_(13,_14)) + edgepairs_((18,_19),_(13,_14))
 - nodepairs_(18,_13) - nodepairs_(18,_14) <= 0
_C1207: edgepairs_((17,_18),_(14,_15)) + edgepairs_((18,_19),_(14,_15))
 - nodepairs_(18,_14) - nodepairs_(18,_15) <= 0
_C1208: edgepairs_((17,_18),_(15,_16)) + edgepairs_((18,_19),_(15,_16))
 - nodepairs_(18,_15) - nodepairs_(18,_16) <= 0
_C1209: - nodepairs_(18,_17) <= 0
_C121: edgepairs_((8,_9),_(0,_1)) + edgepairs_((8,_9),_(0,_17))
 + edgepairs_((8,_9),_(10,_11)) + edgepairs_((8,_9),_(11,_12))
 + edgepairs_((8,_9),_(12,_13)) + edgepairs_((8,_9),_(13,_14))
 + edgepairs_((8,_9),_(14,_15)) + edgepairs_((8,_9),_(15,_16))
 + edgepairs_((8,_9),_(19,_21)) + edgepairs_((8,_9),_(21,_22))
 + edgepairs_((8,_9),_(22,_23)) + edgepairs_((8,_9),_(23,_24))
 + edgepairs_((8,_9),_(24,_25)) + edgepairs_((8,_9),_(25,_26))
 + edgepairs_((8,_9),_(26,_27)) + edgepairs_((8,_9),_(27,_28))
 + edgepairs_((8,_9),_(28,_29)) + edgepairs_((8,_9),_(29,_30))
 + edgepairs_((8,_9),_(3,_5)) + edgepairs_((8,_9),_(30,_31))
 + edgepairs_((8,_9),_(31,_32)) + edgepairs_((8,_9),_(32,_33))
 + edgepairs_((8,_9),_(33,_34)) + edgepairs_((8,_9),_(34,_35))
 + edgepairs_((8,_9),_(35,_36)) + edgepairs_((8,_9),_(36,_37))
 + edgepairs_((8,_9),_(37,_38)) + edgepairs_((8,_9),_(37,_39))
 + edgepairs_((8,_9),_(39,_40)) + edgepairs_((8,_9),_(42,_44))
 + edgepairs_((8,_9),_(44,_45)) + edgepairs_((8,_9),_(45,_46))
 + edgepairs_((8,_9),_(46,_47)) + edgepairs_((8,_9),_(47,_48))
 + edgepairs_((8,_9),_(48,_49)) + edgepairs_((8,_9),_(49,_50))
 + edgepairs_((8,_9),_(5,_6)) + edgepairs_((8,_9),_(50,_51))
 + edgepairs_((8,_9),_(51,_52)) + edgepairs_((8,_9),_(52,_53))
 + edgepairs_((8,_9),_(53,_54)) + edgepairs_((8,_9),_(6,_7))
 + edgepairs_((8,_9),_(7,_8)) + edgepairs_((8,_9),_(8,_9))
 + edgepairs_((8,_9),_(9,_10)) + edgepairs_((8,_9),__1) = 1
_C1210: - nodepairs_(18,_19) <= 0
_C1211: - nodepairs_(18,_19) <= 0
_C1212: edgepairs_((17,_18),_(19,_21)) + edgepairs_((18,_19),_(19,_21))
 - nodepairs_(18,_19) - nodepairs_(18,_21) <= 0
_C1213: edgepairs_((17,_18),_(21,_22)) + edgepairs_((18,_19),_(21,_22))
 - nodepairs_(18,_21) - nodepairs_(18,_22) <= 0
_C1214: edgepairs_((17,_18),_(22,_23)) + edgepairs_((18,_19),_(22,_23))
 - nodepairs_(18,_22) - nodepairs_(18,_23) <= 0
_C1215: edgepairs_((17,_18),_(23,_24)) + edgepairs_((18,_19),_(23,_24))
 - nodepairs_(18,_23) - nodepairs_(18,_24) <= 0
_C1216: edgepairs_((17,_18),_(24,_25)) + edgepairs_((18,_19),_(24,_25))
 - nodepairs_(18,_24) - nodepairs_(18,_25) <= 0
_C1217: edgepairs_((17,_18),_(25,_26)) + edgepairs_((18,_19),_(25,_26))
 - nodepairs_(18,_25) - nodepairs_(18,_26) <= 0
_C1218: edgepairs_((17,_18),_(26,_27)) + edgepairs_((18,_19),_(26,_27))
 - nodepairs_(18,_26) - nodepairs_(18,_27) <= 0
_C1219: edgepairs_((17,_18),_(27,_28)) + edgepairs_((18,_19),_(27,_28))
 - nodepairs_(18,_27) - nodepairs_(18,_28) <= 0
_C122: edgepairs_((9,_10),_(0,_1)) + edgepairs_((9,_10),_(0,_17))
 + edgepairs_((9,_10),_(10,_11)) + edgepairs_((9,_10),_(11,_12))
 + edgepairs_((9,_10),_(12,_13)) + edgepairs_((9,_10),_(13,_14))
 + edgepairs_((9,_10),_(14,_15)) + edgepairs_((9,_10),_(15,_16))
 + edgepairs_((9,_10),_(19,_21)) + edgepairs_((9,_10),_(21,_22))
 + edgepairs_((9,_10),_(22,_23)) + edgepairs_((9,_10),_(23,_24))
 + edgepairs_((9,_10),_(24,_25)) + edgepairs_((9,_10),_(25,_26))
 + edgepairs_((9,_10),_(26,_27)) + edgepairs_((9,_10),_(27,_28))
 + edgepairs_((9,_10),_(28,_29)) + edgepairs_((9,_10),_(29,_30))
 + edgepairs_((9,_10),_(3,_5)) + edgepairs_((9,_10),_(30,_31))
 + edgepairs_((9,_10),_(31,_32)) + edgepairs_((9,_10),_(32,_33))
 + edgepairs_((9,_10),_(33,_34)) + edgepairs_((9,_10),_(34,_35))
 + edgepairs_((9,_10),_(35,_36)) + edgepairs_((9,_10),_(36,_37))
 + edgepairs_((9,_10),_(37,_38)) + edgepairs_((9,_10),_(37,_39))
 + edgepairs_((9,_10),_(39,_40)) + edgepairs_((9,_10),_(42,_44))
 + edgepairs_((9,_10),_(44,_45)) + edgepairs_((9,_10),_(45,_46))
 + edgepairs_((9,_10),_(46,_47)) + edgepairs_((9,_10),_(47,_48))
 + edgepairs_((9,_10),_(48,_49)) + edgepairs_((9,_10),_(49,_50))
 + edgepairs_((9,_10),_(5,_6)) + edgepairs_((9,_10),_(50,_51))
 + edgepairs_((9,_10),_(51,_52)) + edgepairs_((9,_10),_(52,_53))
 + edgepairs_((9,_10),_(53,_54)) + edgepairs_((9,_10),_(6,_7))
 + edgepairs_((9,_10),_(7,_8)) + edgepairs_((9,_10),_(8,_9))
 + edgepairs_((9,_10),_(9,_10)) + edgepairs_((9,_10),__1) = 1
_C1220: edgepairs_((17,_18),_(28,_29)) + edgepairs_((18,_19),_(28,_29))
 - nodepairs_(18,_28) - nodepairs_(18,_29) <= 0
_C1221: edgepairs_((17,_18),_(29,_30)) + edgepairs_((18,_19),_(29,_30))
 - nodepairs_(18,_29) - nodepairs_(18,_30) <= 0
_C1222: edgepairs_((17,_18),_(30,_31)) + edgepairs_((18,_19),_(30,_31))
 - nodepairs_(18,_30) - nodepairs_(18,_31) <= 0
_C1223: edgepairs_((17,_18),_(31,_32)) + edgepairs_((18,_19),_(31,_32))
 - nodepairs_(18,_31) - nodepairs_(18,_32) <= 0
_C1224: edgepairs_((17,_18),_(32,_33)) + edgepairs_((18,_19),_(32,_33))
 - nodepairs_(18,_32) - nodepairs_(18,_33) <= 0
_C1225: edgepairs_((17,_18),_(33,_34)) + edgepairs_((18,_19),_(33,_34))
 - nodepairs_(18,_33) - nodepairs_(18,_34) <= 0
_C1226: edgepairs_((17,_18),_(34,_35)) + edgepairs_((18,_19),_(34,_35))
 - nodepairs_(18,_34) - nodepairs_(18,_35) <= 0
_C1227: edgepairs_((17,_18),_(35,_36)) + edgepairs_((18,_19),_(35,_36))
 - nodepairs_(18,_35) - nodepairs_(18,_36) <= 0
_C1228: edgepairs_((17,_18),_(36,_37)) + edgepairs_((18,_19),_(36,_37))
 - nodepairs_(18,_36) - nodepairs_(18,_37) <= 0
_C1229: edgepairs_((17,_18),_(37,_38)) + edgepairs_((18,_19),_(37,_38))
 - nodepairs_(18,_37) - nodepairs_(18,_38) <= 0
_C123: edgepairs_((10,_11),_(0,_1)) + edgepairs_((10,_11),_(0,_17))
 + edgepairs_((10,_11),_(10,_11)) + edgepairs_((10,_11),_(11,_12))
 + edgepairs_((10,_11),_(12,_13)) + edgepairs_((10,_11),_(13,_14))
 + edgepairs_((10,_11),_(14,_15)) + edgepairs_((10,_11),_(15,_16))
 + edgepairs_((10,_11),_(19,_21)) + edgepairs_((10,_11),_(21,_22))
 + edgepairs_((10,_11),_(22,_23)) + edgepairs_((10,_11),_(23,_24))
 + edgepairs_((10,_11),_(24,_25)) + edgepairs_((10,_11),_(25,_26))
 + edgepairs_((10,_11),_(26,_27)) + edgepairs_((10,_11),_(27,_28))
 + edgepairs_((10,_11),_(28,_29)) + edgepairs_((10,_11),_(29,_30))
 + edgepairs_((10,_11),_(3,_5)) + edgepairs_((10,_11),_(30,_31))
 + edgepairs_((10,_11),_(31,_32)) + edgepairs_((10,_11),_(32,_33))
 + edgepairs_((10,_11),_(33,_34)) + edgepairs_((10,_11),_(34,_35))
 + edgepairs_((10,_11),_(35,_36)) + edgepairs_((10,_11),_(36,_37))
 + edgepairs_((10,_11),_(37,_38)) + edgepairs_((10,_11),_(37,_39))
 + edgepairs_((10,_11),_(39,_40)) + edgepairs_((10,_11),_(42,_44))
 + edgepairs_((10,_11),_(44,_45)) + edgepairs_((10,_11),_(45,_46))
 + edgepairs_((10,_11),_(46,_47)) + edgepairs_((10,_11),_(47,_48))
 + edgepairs_((10,_11),_(48,_49)) + edgepairs_((10,_11),_(49,_50))
 + edgepairs_((10,_11),_(5,_6)) + edgepairs_((10,_11),_(50,_51))
 + edgepairs_((10,_11),_(51,_52)) + edgepairs_((10,_11),_(52,_53))
 + edgepairs_((10,_11),_(53,_54)) + edgepairs_((10,_11),_(6,_7))
 + edgepairs_((10,_11),_(7,_8)) + edgepairs_((10,_11),_(8,_9))
 + edgepairs_((10,_11),_(9,_10)) + edgepairs_((10,_11),__1) = 1
_C1230: edgepairs_((17,_18),_(37,_39)) + edgepairs_((18,_19),_(37,_39))
 - nodepairs_(18,_37) - nodepairs_(18,_39) <= 0
_C1231: edgepairs_((17,_18),_(39,_40)) + edgepairs_((18,_19),_(39,_40))
 - nodepairs_(18,_39) - nodepairs_(18,_40) <= 0
_C1232: - nodepairs_(18,_42) <= 0
_C1233: - nodepairs_(18,_42) <= 0
_C1234: edgepairs_((17,_18),_(42,_44)) + edgepairs_((18,_19),_(42,_44))
 - nodepairs_(18,_42) - nodepairs_(18,_44) <= 0
_C1235: edgepairs_((17,_18),_(44,_45)) + edgepairs_((18,_19),_(44,_45))
 - nodepairs_(18,_44) - nodepairs_(18,_45) <= 0
_C1236: edgepairs_((17,_18),_(45,_46)) + edgepairs_((18,_19),_(45,_46))
 - nodepairs_(18,_45) - nodepairs_(18,_46) <= 0
_C1237: edgepairs_((17,_18),_(46,_47)) + edgepairs_((18,_19),_(46,_47))
 - nodepairs_(18,_46) - nodepairs_(18,_47) <= 0
_C1238: edgepairs_((17,_18),_(47,_48)) + edgepairs_((18,_19),_(47,_48))
 - nodepairs_(18,_47) - nodepairs_(18,_48) <= 0
_C1239: edgepairs_((17,_18),_(48,_49)) + edgepairs_((18,_19),_(48,_49))
 - nodepairs_(18,_48) - nodepairs_(18,_49) <= 0
_C124: edgepairs_((11,_12),_(0,_1)) + edgepairs_((11,_12),_(0,_17))
 + edgepairs_((11,_12),_(10,_11)) + edgepairs_((11,_12),_(11,_12))
 + edgepairs_((11,_12),_(12,_13)) + edgepairs_((11,_12),_(13,_14))
 + edgepairs_((11,_12),_(14,_15)) + edgepairs_((11,_12),_(15,_16))
 + edgepairs_((11,_12),_(19,_21)) + edgepairs_((11,_12),_(21,_22))
 + edgepairs_((11,_12),_(22,_23)) + edgepairs_((11,_12),_(23,_24))
 + edgepairs_((11,_12),_(24,_25)) + edgepairs_((11,_12),_(25,_26))
 + edgepairs_((11,_12),_(26,_27)) + edgepairs_((11,_12),_(27,_28))
 + edgepairs_((11,_12),_(28,_29)) + edgepairs_((11,_12),_(29,_30))
 + edgepairs_((11,_12),_(3,_5)) + edgepairs_((11,_12),_(30,_31))
 + edgepairs_((11,_12),_(31,_32)) + edgepairs_((11,_12),_(32,_33))
 + edgepairs_((11,_12),_(33,_34)) + edgepairs_((11,_12),_(34,_35))
 + edgepairs_((11,_12),_(35,_36)) + edgepairs_((11,_12),_(36,_37))
 + edgepairs_((11,_12),_(37,_38)) + edgepairs_((11,_12),_(37,_39))
 + edgepairs_((11,_12),_(39,_40)) + edgepairs_((11,_12),_(42,_44))
 + edgepairs_((11,_12),_(44,_45)) + edgepairs_((11,_12),_(45,_46))
 + edgepairs_((11,_12),_(46,_47)) + edgepairs_((11,_12),_(47,_48))
 + edgepairs_((11,_12),_(48,_49)) + edgepairs_((11,_12),_(49,_50))
 + edgepairs_((11,_12),_(5,_6)) + edgepairs_((11,_12),_(50,_51))
 + edgepairs_((11,_12),_(51,_52)) + edgepairs_((11,_12),_(52,_53))
 + edgepairs_((11,_12),_(53,_54)) + edgepairs_((11,_12),_(6,_7))
 + edgepairs_((11,_12),_(7,_8)) + edgepairs_((11,_12),_(8,_9))
 + edgepairs_((11,_12),_(9,_10)) + edgepairs_((11,_12),__1) = 1
_C1240: edgepairs_((17,_18),_(49,_50)) + edgepairs_((18,_19),_(49,_50))
 - nodepairs_(18,_49) - nodepairs_(18,_50) <= 0
_C1241: edgepairs_((17,_18),_(50,_51)) + edgepairs_((18,_19),_(50,_51))
 - nodepairs_(18,_50) - nodepairs_(18,_51) <= 0
_C1242: edgepairs_((17,_18),_(51,_52)) + edgepairs_((18,_19),_(51,_52))
 - nodepairs_(18,_51) - nodepairs_(18,_52) <= 0
_C1243: edgepairs_((17,_18),_(52,_53)) + edgepairs_((18,_19),_(52,_53))
 - nodepairs_(18,_52) - nodepairs_(18,_53) <= 0
_C1244: edgepairs_((17,_18),_(53,_54)) + edgepairs_((18,_19),_(53,_54))
 - nodepairs_(18,_53) - nodepairs_(18,_54) <= 0
_C1245: edgepairs_((18,_19),_(0,_1)) + edgepairs_((19,_20),_(0,_1))
 - nodepairs_(19,_0) - nodepairs_(19,_1) <= 0
_C1246: edgepairs_((18,_19),_(0,_17)) + edgepairs_((19,_20),_(0,_17))
 - nodepairs_(19,_0) - nodepairs_(19,_17) <= 0
_C1247: - nodepairs_(19,_0) <= 0
_C1248: - nodepairs_(19,_1) <= 0
_C1249: - nodepairs_(19,_3) <= 0
_C125: edgepairs_((12,_13),_(0,_1)) + edgepairs_((12,_13),_(0,_17))
 + edgepairs_((12,_13),_(10,_11)) + edgepairs_((12,_13),_(11,_12))
 + edgepairs_((12,_13),_(12,_13)) + edgepairs_((12,_13),_(13,_14))
 + edgepairs_((12,_13),_(14,_15)) + edgepairs_((12,_13),_(15,_16))
 + edgepairs_((12,_13),_(19,_21)) + edgepairs_((12,_13),_(21,_22))
 + edgepairs_((12,_13),_(22,_23)) + edgepairs_((12,_13),_(23,_24))
 + edgepairs_((12,_13),_(24,_25)) + edgepairs_((12,_13),_(25,_26))
 + edgepairs_((12,_13),_(26,_27)) + edgepairs_((12,_13),_(27,_28))
 + edgepairs_((12,_13),_(28,_29)) + edgepairs_((12,_13),_(29,_30))
 + edgepairs_((12,_13),_(3,_5)) + edgepairs_((12,_13),_(30,_31))
 + edgepairs_((12,_13),_(31,_32)) + edgepairs_((12,_13),_(32,_33))
 + edgepairs_((12,_13),_(33,_34)) + edgepairs_((12,_13),_(34,_35))
 + edgepairs_((12,_13),_(35,_36)) + edgepairs_((12,_13),_(36,_37))
 + edgepairs_((12,_13),_(37,_38)) + edgepairs_((12,_13),_(37,_39))
 + edgepairs_((12,_13),_(39,_40)) + edgepairs_((12,_13),_(42,_44))
 + edgepairs_((12,_13),_(44,_45)) + edgepairs_((12,_13),_(45,_46))
 + edgepairs_((12,_13),_(46,_47)) + edgepairs_((12,_13),_(47,_48))
 + edgepairs_((12,_13),_(48,_49)) + edgepairs_((12,_13),_(49,_50))
 + edgepairs_((12,_13),_(5,_6)) + edgepairs_((12,_13),_(50,_51))
 + edgepairs_((12,_13),_(51,_52)) + edgepairs_((12,_13),_(52,_53))
 + edgepairs_((12,_13),_(53,_54)) + edgepairs_((12,_13),_(6,_7))
 + edgepairs_((12,_13),_(7,_8)) + edgepairs_((12,_13),_(8,_9))
 + edgepairs_((12,_13),_(9,_10)) + edgepairs_((12,_13),__1) = 1
_C1250: - nodepairs_(19,_3) <= 0
_C1251: edgepairs_((18,_19),_(3,_5)) + edgepairs_((19,_20),_(3,_5))
 - nodepairs_(19,_3) - nodepairs_(19,_5) <= 0
_C1252: edgepairs_((18,_19),_(5,_6)) + edgepairs_((19,_20),_(5,_6))
 - nodepairs_(19,_5) - nodepairs_(19,_6) <= 0
_C1253: edgepairs_((18,_19),_(6,_7)) + edgepairs_((19,_20),_(6,_7))
 - nodepairs_(19,_6) - nodepairs_(19,_7) <= 0
_C1254: edgepairs_((18,_19),_(7,_8)) + edgepairs_((19,_20),_(7,_8))
 - nodepairs_(19,_7) - nodepairs_(19,_8) <= 0
_C1255: edgepairs_((18,_19),_(8,_9)) + edgepairs_((19,_20),_(8,_9))
 - nodepairs_(19,_8) - nodepairs_(19,_9) <= 0
_C1256: edgepairs_((18,_19),_(9,_10)) + edgepairs_((19,_20),_(9,_10))
 - nodepairs_(19,_10) - nodepairs_(19,_9) <= 0
_C1257: edgepairs_((18,_19),_(10,_11)) + edgepairs_((19,_20),_(10,_11))
 - nodepairs_(19,_10) - nodepairs_(19,_11) <= 0
_C1258: edgepairs_((18,_19),_(11,_12)) + edgepairs_((19,_20),_(11,_12))
 - nodepairs_(19,_11) - nodepairs_(19,_12) <= 0
_C1259: edgepairs_((18,_19),_(12,_13)) + edgepairs_((19,_20),_(12,_13))
 - nodepairs_(19,_12) - nodepairs_(19,_13) <= 0
_C126: edgepairs_((13,_14),_(0,_1)) + edgepairs_((13,_14),_(0,_17))
 + edgepairs_((13,_14),_(10,_11)) + edgepairs_((13,_14),_(11,_12))
 + edgepairs_((13,_14),_(12,_13)) + edgepairs_((13,_14),_(13,_14))
 + edgepairs_((13,_14),_(14,_15)) + edgepairs_((13,_14),_(15,_16))
 + edgepairs_((13,_14),_(19,_21)) + edgepairs_((13,_14),_(21,_22))
 + edgepairs_((13,_14),_(22,_23)) + edgepairs_((13,_14),_(23,_24))
 + edgepairs_((13,_14),_(24,_25)) + edgepairs_((13,_14),_(25,_26))
 + edgepairs_((13,_14),_(26,_27)) + edgepairs_((13,_14),_(27,_28))
 + edgepairs_((13,_14),_(28,_29)) + edgepairs_((13,_14),_(29,_30))
 + edgepairs_((13,_14),_(3,_5)) + edgepairs_((13,_14),_(30,_31))
 + edgepairs_((13,_14),_(31,_32)) + edgepairs_((13,_14),_(32,_33))
 + edgepairs_((13,_14),_(33,_34)) + edgepairs_((13,_14),_(34,_35))
 + edgepairs_((13,_14),_(35,_36)) + edgepairs_((13,_14),_(36,_37))
 + edgepairs_((13,_14),_(37,_38)) + edgepairs_((13,_14),_(37,_39))
 + edgepairs_((13,_14),_(39,_40)) + edgepairs_((13,_14),_(42,_44))
 + edgepairs_((13,_14),_(44,_45)) + edgepairs_((13,_14),_(45,_46))
 + edgepairs_((13,_14),_(46,_47)) + edgepairs_((13,_14),_(47,_48))
 + edgepairs_((13,_14),_(48,_49)) + edgepairs_((13,_14),_(49,_50))
 + edgepairs_((13,_14),_(5,_6)) + edgepairs_((13,_14),_(50,_51))
 + edgepairs_((13,_14),_(51,_52)) + edgepairs_((13,_14),_(52,_53))
 + edgepairs_((13,_14),_(53,_54)) + edgepairs_((13,_14),_(6,_7))
 + edgepairs_((13,_14),_(7,_8)) + edgepairs_((13,_14),_(8,_9))
 + edgepairs_((13,_14),_(9,_10)) + edgepairs_((13,_14),__1) = 1
_C1260: edgepairs_((18,_19),_(13,_14)) + edgepairs_((19,_20),_(13,_14))
 - nodepairs_(19,_13) - nodepairs_(19,_14) <= 0
_C1261: edgepairs_((18,_19),_(14,_15)) + edgepairs_((19,_20),_(14,_15))
 - nodepairs_(19,_14) - nodepairs_(19,_15) <= 0
_C1262: edgepairs_((18,_19),_(15,_16)) + edgepairs_((19,_20),_(15,_16))
 - nodepairs_(19,_15) - nodepairs_(19,_16) <= 0
_C1263: - nodepairs_(19,_17) <= 0
_C1264: - nodepairs_(19,_19) <= 0
_C1265: - nodepairs_(19,_19) <= 0
_C1266: edgepairs_((18,_19),_(19,_21)) + edgepairs_((19,_20),_(19,_21))
 - nodepairs_(19,_19) - nodepairs_(19,_21) <= 0
_C1267: edgepairs_((18,_19),_(21,_22)) + edgepairs_((19,_20),_(21,_22))
 - nodepairs_(19,_21) - nodepairs_(19,_22) <= 0
_C1268: edgepairs_((18,_19),_(22,_23)) + edgepairs_((19,_20),_(22,_23))
 - nodepairs_(19,_22) - nodepairs_(19,_23) <= 0
_C1269: edgepairs_((18,_19),_(23,_24)) + edgepairs_((19,_20),_(23,_24))
 - nodepairs_(19,_23) - nodepairs_(19,_24) <= 0
_C127: edgepairs_((14,_15),_(0,_1)) + edgepairs_((14,_15),_(0,_17))
 + edgepairs_((14,_15),_(10,_11)) + edgepairs_((14,_15),_(11,_12))
 + edgepairs_((14,_15),_(12,_13)) + edgepairs_((14,_15),_(13,_14))
 + edgepairs_((14,_15),_(14,_15)) + edgepairs_((14,_15),_(15,_16))
 + edgepairs_((14,_15),_(19,_21)) + edgepairs_((14,_15),_(21,_22))
 + edgepairs_((14,_15),_(22,_23)) + edgepairs_((14,_15),_(23,_24))
 + edgepairs_((14,_15),_(24,_25)) + edgepairs_((14,_15),_(25,_26))
 + edgepairs_((14,_15),_(26,_27)) + edgepairs_((14,_15),_(27,_28))
 + edgepairs_((14,_15),_(28,_29)) + edgepairs_((14,_15),_(29,_30))
 + edgepairs_((14,_15),_(3,_5)) + edgepairs_((14,_15),_(30,_31))
 + edgepairs_((14,_15),_(31,_32)) + edgepairs_((14,_15),_(32,_33))
 + edgepairs_((14,_15),_(33,_34)) + edgepairs_((14,_15),_(34,_35))
 + edgepairs_((14,_15),_(35,_36)) + edgepairs_((14,_15),_(36,_37))
 + edgepairs_((14,_15),_(37,_38)) + edgepairs_((14,_15),_(37,_39))
 + edgepairs_((14,_15),_(39,_40)) + edgepairs_((14,_15),_(42,_44))
 + edgepairs_((14,_15),_(44,_45)) + edgepairs_((14,_15),_(45,_46))
 + edgepairs_((14,_15),_(46,_47)) + edgepairs_((14,_15),_(47,_48))
 + edgepairs_((14,_15),_(48,_49)) + edgepairs_((14,_15),_(49,_50))
 + edgepairs_((14,_15),_(5,_6)) + edgepairs_((14,_15),_(50,_51))
 + edgepairs_((14,_15),_(51,_52)) + edgepairs_((14,_15),_(52,_53))
 + edgepairs_((14,_15),_(53,_54)) + edgepairs_((14,_15),_(6,_7))
 + edgepairs_((14,_15),_(7,_8)) + edgepairs_((14,_15),_(8,_9))
 + edgepairs_((14,_15),_(9,_10)) + edgepairs_((14,_15),__1) = 1
_C1270: edgepairs_((18,_19),_(24,_25)) + edgepairs_((19,_20),_(24,_25))
 - nodepairs_(19,_24) - nodepairs_(19,_25) <= 0
_C1271: edgepairs_((18,_19),_(25,_26)) + edgepairs_((19,_20),_(25,_26))
 - nodepairs_(19,_25) - nodepairs_(19,_26) <= 0
_C1272: edgepairs_((18,_19),_(26,_27)) + edgepairs_((19,_20),_(26,_27))
 - nodepairs_(19,_26) - nodepairs_(19,_27) <= 0
_C1273: edgepairs_((18,_19),_(27,_28)) + edgepairs_((19,_20),_(27,_28))
 - nodepairs_(19,_27) - nodepairs_(19,_28) <= 0
_C1274: edgepairs_((18,_19),_(28,_29)) + edgepairs_((19,_20),_(28,_29))
 - nodepairs_(19,_28) - nodepairs_(19,_29) <= 0
_C1275: edgepairs_((18,_19),_(29,_30)) + edgepairs_((19,_20),_(29,_30))
 - nodepairs_(19,_29) - nodepairs_(19,_30) <= 0
_C1276: edgepairs_((18,_19),_(30,_31)) + edgepairs_((19,_20),_(30,_31))
 - nodepairs_(19,_30) - nodepairs_(19,_31) <= 0
_C1277: edgepairs_((18,_19),_(31,_32)) + edgepairs_((19,_20),_(31,_32))
 - nodepairs_(19,_31) - nodepairs_(19,_32) <= 0
_C1278: edgepairs_((18,_19),_(32,_33)) + edgepairs_((19,_20),_(32,_33))
 - nodepairs_(19,_32) - nodepairs_(19,_33) <= 0
_C1279: edgepairs_((18,_19),_(33,_34)) + edgepairs_((19,_20),_(33,_34))
 - nodepairs_(19,_33) - nodepairs_(19,_34) <= 0
_C128: edgepairs_((15,_16),_(0,_1)) + edgepairs_((15,_16),_(0,_17))
 + edgepairs_((15,_16),_(10,_11)) + edgepairs_((15,_16),_(11,_12))
 + edgepairs_((15,_16),_(12,_13)) + edgepairs_((15,_16),_(13,_14))
 + edgepairs_((15,_16),_(14,_15)) + edgepairs_((15,_16),_(15,_16))
 + edgepairs_((15,_16),_(19,_21)) + edgepairs_((15,_16),_(21,_22))
 + edgepairs_((15,_16),_(22,_23)) + edgepairs_((15,_16),_(23,_24))
 + edgepairs_((15,_16),_(24,_25)) + edgepairs_((15,_16),_(25,_26))
 + edgepairs_((15,_16),_(26,_27)) + edgepairs_((15,_16),_(27,_28))
 + edgepairs_((15,_16),_(28,_29)) + edgepairs_((15,_16),_(29,_30))
 + edgepairs_((15,_16),_(3,_5)) + edgepairs_((15,_16),_(30,_31))
 + edgepairs_((15,_16),_(31,_32)) + edgepairs_((15,_16),_(32,_33))
 + edgepairs_((15,_16),_(33,_34)) + edgepairs_((15,_16),_(34,_35))
 + edgepairs_((15,_16),_(35,_36)) + edgepairs_((15,_16),_(36,_37))
 + edgepairs_((15,_16),_(37,_38)) + edgepairs_((15,_16),_(37,_39))
 + edgepairs_((15,_16),_(39,_40)) + edgepairs_((15,_16),_(42,_44))
 + edgepairs_((15,_16),_(44,_45)) + edgepairs_((15,_16),_(45,_46))
 + edgepairs_((15,_16),_(46,_47)) + edgepairs_((15,_16),_(47,_48))
 + edgepairs_((15,_16),_(48,_49)) + edgepairs_((15,_16),_(49,_50))
 + edgepairs_((15,_16),_(5,_6)) + edgepairs_((15,_16),_(50,_51))
 + edgepairs_((15,_16),_(51,_52)) + edgepairs_((15,_16),_(52,_53))
 + edgepairs_((15,_16),_(53,_54)) + edgepairs_((15,_16),_(6,_7))
 + edgepairs_((15,_16),_(7,_8)) + edgepairs_((15,_16),_(8,_9))
 + edgepairs_((15,_16),_(9,_10)) + edgepairs_((15,_16),__1) = 1
_C1280: edgepairs_((18,_19),_(34,_35)) + edgepairs_((19,_20),_(34,_35))
 - nodepairs_(19,_34) - nodepairs_(19,_35) <= 0
_C1281: edgepairs_((18,_19),_(35,_36)) + edgepairs_((19,_20),_(35,_36))
 - nodepairs_(19,_35) - nodepairs_(19,_36) <= 0
_C1282: edgepairs_((18,_19),_(36,_37)) + edgepairs_((19,_20),_(36,_37))
 - nodepairs_(19,_36) - nodepairs_(19,_37) <= 0
_C1283: edgepairs_((18,_19),_(37,_38)) + edgepairs_((19,_20),_(37,_38))
 - nodepairs_(19,_37) - nodepairs_(19,_38) <= 0
_C1284: edgepairs_((18,_19),_(37,_39)) + edgepairs_((19,_20),_(37,_39))
 - nodepairs_(19,_37) - nodepairs_(19,_39) <= 0
_C1285: edgepairs_((18,_19),_(39,_40)) + edgepairs_((19,_20),_(39,_40))
 - nodepairs_(19,_39) - nodepairs_(19,_40) <= 0
_C1286: - nodepairs_(19,_42) <= 0
_C1287: - nodepairs_(19,_42) <= 0
_C1288: edgepairs_((18,_19),_(42,_44)) + edgepairs_((19,_20),_(42,_44))
 - nodepairs_(19,_42) - nodepairs_(19,_44) <= 0
_C1289: edgepairs_((18,_19),_(44,_45)) + edgepairs_((19,_20),_(44,_45))
 - nodepairs_(19,_44) - nodepairs_(19,_45) <= 0
_C129: edgepairs_((16,_17),_(0,_1)) + edgepairs_((16,_17),_(0,_17))
 + edgepairs_((16,_17),_(10,_11)) + edgepairs_((16,_17),_(11,_12))
 + edgepairs_((16,_17),_(12,_13)) + edgepairs_((16,_17),_(13,_14))
 + edgepairs_((16,_17),_(14,_15)) + edgepairs_((16,_17),_(15,_16))
 + edgepairs_((16,_17),_(19,_21)) + edgepairs_((16,_17),_(21,_22))
 + edgepairs_((16,_17),_(22,_23)) + edgepairs_((16,_17),_(23,_24))
 + edgepairs_((16,_17),_(24,_25)) + edgepairs_((16,_17),_(25,_26))
 + edgepairs_((16,_17),_(26,_27)) + edgepairs_((16,_17),_(27,_28))
 + edgepairs_((16,_17),_(28,_29)) + edgepairs_((16,_17),_(29,_30))
 + edgepairs_((16,_17),_(3,_5)) + edgepairs_((16,_17),_(30,_31))
 + edgepairs_((16,_17),_(31,_32)) + edgepairs_((16,_17),_(32,_33))
 + edgepairs_((16,_17),_(33,_34)) + edgepairs_((16,_17),_(34,_35))
 + edgepairs_((16,_17),_(35,_36)) + edgepairs_((16,_17),_(36,_37))
 + edgepairs_((16,_17),_(37,_38)) + edgepairs_((16,_17),_(37,_39))
 + edgepairs_((16,_17),_(39,_40)) + edgepairs_((16,_17),_(42,_44))
 + edgepairs_((16,_17),_(44,_45)) + edgepairs_((16,_17),_(45,_46))
 + edgepairs_((16,_17),_(46,_47)) + edgepairs_((16,_17),_(47,_48))
 + edgepairs_((16,_17),_(48,_49)) + edgepairs_((16,_17),_(49,_50))
 + edgepairs_((16,_17),_(5,_6)) + edgepairs_((16,_17),_(50,_51))
 + edgepairs_((16,_17),_(51,_52)) + edgepairs_((16,_17),_(52,_53))
 + edgepairs_((16,_17),_(53,_54)) + edgepairs_((16,_17),_(6,_7))
 + edgepairs_((16,_17),_(7,_8)) + edgepairs_((16,_17),_(8,_9))
 + edgepairs_((16,_17),_(9,_10)) + edgepairs_((16,_17),__1) = 1
_C1290: edgepairs_((18,_19),_(45,_46)) + edgepairs_((19,_20),_(45,_46))
 - nodepairs_(19,_45) - nodepairs_(19,_46) <= 0
_C1291: edgepairs_((18,_19),_(46,_47)) + edgepairs_((19,_20),_(46,_47))
 - nodepairs_(19,_46) - nodepairs_(19,_47) <= 0
_C1292: edgepairs_((18,_19),_(47,_48)) + edgepairs_((19,_20),_(47,_48))
 - nodepairs_(19,_47) - nodepairs_(19,_48) <= 0
_C1293: edgepairs_((18,_19),_(48,_49)) + edgepairs_((19,_20),_(48,_49))
 - nodepairs_(19,_48) - nodepairs_(19,_49) <= 0
_C1294: edgepairs_((18,_19),_(49,_50)) + edgepairs_((19,_20),_(49,_50))
 - nodepairs_(19,_49) - nodepairs_(19,_50) <= 0
_C1295: edgepairs_((18,_19),_(50,_51)) + edgepairs_((19,_20),_(50,_51))
 - nodepairs_(19,_50) - nodepairs_(19,_51) <= 0
_C1296: edgepairs_((18,_19),_(51,_52)) + edgepairs_((19,_20),_(51,_52))
 - nodepairs_(19,_51) - nodepairs_(19,_52) <= 0
_C1297: edgepairs_((18,_19),_(52,_53)) + edgepairs_((19,_20),_(52,_53))
 - nodepairs_(19,_52) - nodepairs_(19,_53) <= 0
_C1298: edgepairs_((18,_19),_(53,_54)) + edgepairs_((19,_20),_(53,_54))
 - nodepairs_(19,_53) - nodepairs_(19,_54) <= 0
_C1299: edgepairs_((19,_20),_(0,_1)) + edgepairs_((20,_21),_(0,_1))
 - nodepairs_(20,_0) - nodepairs_(20,_1) <= 0
_C13: nodepairs_(12,_0) + nodepairs_(12,_1) + nodepairs_(12,_10)
 + nodepairs_(12,_11) + nodepairs_(12,_12) + nodepairs_(12,_13)
 + nodepairs_(12,_14) + nodepairs_(12,_15) + nodepairs_(12,_16)
 + nodepairs_(12,_17) + nodepairs_(12,_19) + nodepairs_(12,_21)
 + nodepairs_(12,_22) + nodepairs_(12,_23) + nodepairs_(12,_24)
 + nodepairs_(12,_25) + nodepairs_(12,_26) + nodepairs_(12,_27)
 + nodepairs_(12,_28) + nodepairs_(12,_29) + nodepairs_(12,_3)
 + nodepairs_(12,_30) + nodepairs_(12,_31) + nodepairs_(12,_32)
 + nodepairs_(12,_33) + nodepairs_(12,_34) + nodepairs_(12,_35)
 + nodepairs_(12,_36) + nodepairs_(12,_37) + nodepairs_(12,_38)
 + nodepairs_(12,_39) + nodepairs_(12,_40) + nodepairs_(12,_42)
 + nodepairs_(12,_44) + nodepairs_(12,_45) + nodepairs_(12,_46)
 + nodepairs_(12,_47) + nodepairs_(12,_48) + nodepairs_(12,_49)
 + nodepairs_(12,_5) + nodepairs_(12,_50) + nodepairs_(12,_51)
 + nodepairs_(12,_52) + nodepairs_(12,_53) + nodepairs_(12,_54)
 + nodepairs_(12,_6) + nodepairs_(12,_7) + nodepairs_(12,_8)
 + nodepairs_(12,_9) <= 1
_C130: edgepairs_((17,_18),_(0,_1)) + edgepairs_((17,_18),_(0,_17))
 + edgepairs_((17,_18),_(10,_11)) + edgepairs_((17,_18),_(11,_12))
 + edgepairs_((17,_18),_(12,_13)) + edgepairs_((17,_18),_(13,_14))
 + edgepairs_((17,_18),_(14,_15)) + edgepairs_((17,_18),_(15,_16))
 + edgepairs_((17,_18),_(19,_21)) + edgepairs_((17,_18),_(21,_22))
 + edgepairs_((17,_18),_(22,_23)) + edgepairs_((17,_18),_(23,_24))
 + edgepairs_((17,_18),_(24,_25)) + edgepairs_((17,_18),_(25,_26))
 + edgepairs_((17,_18),_(26,_27)) + edgepairs_((17,_18),_(27,_28))
 + edgepairs_((17,_18),_(28,_29)) + edgepairs_((17,_18),_(29,_30))
 + edgepairs_((17,_18),_(3,_5)) + edgepairs_((17,_18),_(30,_31))
 + edgepairs_((17,_18),_(31,_32)) + edgepairs_((17,_18),_(32,_33))
 + edgepairs_((17,_18),_(33,_34)) + edgepairs_((17,_18),_(34,_35))
 + edgepairs_((17,_18),_(35,_36)) + edgepairs_((17,_18),_(36,_37))
 + edgepairs_((17,_18),_(37,_38)) + edgepairs_((17,_18),_(37,_39))
 + edgepairs_((17,_18),_(39,_40)) + edgepairs_((17,_18),_(42,_44))
 + edgepairs_((17,_18),_(44,_45)) + edgepairs_((17,_18),_(45,_46))
 + edgepairs_((17,_18),_(46,_47)) + edgepairs_((17,_18),_(47,_48))
 + edgepairs_((17,_18),_(48,_49)) + edgepairs_((17,_18),_(49,_50))
 + edgepairs_((17,_18),_(5,_6)) + edgepairs_((17,_18),_(50,_51))
 + edgepairs_((17,_18),_(51,_52)) + edgepairs_((17,_18),_(52,_53))
 + edgepairs_((17,_18),_(53,_54)) + edgepairs_((17,_18),_(6,_7))
 + edgepairs_((17,_18),_(7,_8)) + edgepairs_((17,_18),_(8,_9))
 + edgepairs_((17,_18),_(9,_10)) + edgepairs_((17,_18),__1) = 1
_C1300: edgepairs_((19,_20),_(0,_17)) + edgepairs_((20,_21),_(0,_17))
 - nodepairs_(20,_0) - nodepairs_(20,_17) <= 0
_C1301: - nodepairs_(20,_0) <= 0
_C1302: - nodepairs_(20,_1) <= 0
_C1303: - nodepairs_(20,_3) <= 0
_C1304: - nodepairs_(20,_3) <= 0
_C1305: edgepairs_((19,_20),_(3,_5)) + edgepairs_((20,_21),_(3,_5))
 - nodepairs_(20,_3) - nodepairs_(20,_5) <= 0
_C1306: edgepairs_((19,_20),_(5,_6)) + edgepairs_((20,_21),_(5,_6))
 - nodepairs_(20,_5) - nodepairs_(20,_6) <= 0
_C1307: edgepairs_((19,_20),_(6,_7)) + edgepairs_((20,_21),_(6,_7))
 - nodepairs_(20,_6) - nodepairs_(20,_7) <= 0
_C1308: edgepairs_((19,_20),_(7,_8)) + edgepairs_((20,_21),_(7,_8))
 - nodepairs_(20,_7) - nodepairs_(20,_8) <= 0
_C1309: edgepairs_((19,_20),_(8,_9)) + edgepairs_((20,_21),_(8,_9))
 - nodepairs_(20,_8) - nodepairs_(20,_9) <= 0
_C131: edgepairs_((18,_19),_(0,_1)) + edgepairs_((18,_19),_(0,_17))
 + edgepairs_((18,_19),_(10,_11)) + edgepairs_((18,_19),_(11,_12))
 + edgepairs_((18,_19),_(12,_13)) + edgepairs_((18,_19),_(13,_14))
 + edgepairs_((18,_19),_(14,_15)) + edgepairs_((18,_19),_(15,_16))
 + edgepairs_((18,_19),_(19,_21)) + edgepairs_((18,_19),_(21,_22))
 + edgepairs_((18,_19),_(22,_23)) + edgepairs_((18,_19),_(23,_24))
 + edgepairs_((18,_19),_(24,_25)) + edgepairs_((18,_19),_(25,_26))
 + edgepairs_((18,_19),_(26,_27)) + edgepairs_((18,_19),_(27,_28))
 + edgepairs_((18,_19),_(28,_29)) + edgepairs_((18,_19),_(29,_30))
 + edgepairs_((18,_19),_(3,_5)) + edgepairs_((18,_19),_(30,_31))
 + edgepairs_((18,_19),_(31,_32)) + edgepairs_((18,_19),_(32,_33))
 + edgepairs_((18,_19),_(33,_34)) + edgepairs_((18,_19),_(34,_35))
 + edgepairs_((18,_19),_(35,_36)) + edgepairs_((18,_19),_(36,_37))
 + edgepairs_((18,_19),_(37,_38)) + edgepairs_((18,_19),_(37,_39))
 + edgepairs_((18,_19),_(39,_40)) + edgepairs_((18,_19),_(42,_44))
 + edgepairs_((18,_19),_(44,_45)) + edgepairs_((18,_19),_(45,_46))
 + edgepairs_((18,_19),_(46,_47)) + edgepairs_((18,_19),_(47,_48))
 + edgepairs_((18,_19),_(48,_49)) + edgepairs_((18,_19),_(49,_50))
 + edgepairs_((18,_19),_(5,_6)) + edgepairs_((18,_19),_(50,_51))
 + edgepairs_((18,_19),_(51,_52)) + edgepairs_((18,_19),_(52,_53))
 + edgepairs_((18,_19),_(53,_54)) + edgepairs_((18,_19),_(6,_7))
 + edgepairs_((18,_19),_(7,_8)) + edgepairs_((18,_19),_(8,_9))
 + edgepairs_((18,_19),_(9,_10)) + edgepairs_((18,_19),__1) = 1
_C1310: edgepairs_((19,_20),_(9,_10)) + edgepairs_((20,_21),_(9,_10))
 - nodepairs_(20,_10) - nodepairs_(20,_9) <= 0
_C1311: edgepairs_((19,_20),_(10,_11)) + edgepairs_((20,_21),_(10,_11))
 - nodepairs_(20,_10) - nodepairs_(20,_11) <= 0
_C1312: edgepairs_((19,_20),_(11,_12)) + edgepairs_((20,_21),_(11,_12))
 - nodepairs_(20,_11) - nodepairs_(20,_12) <= 0
_C1313: edgepairs_((19,_20),_(12,_13)) + edgepairs_((20,_21),_(12,_13))
 - nodepairs_(20,_12) - nodepairs_(20,_13) <= 0
_C1314: edgepairs_((19,_20),_(13,_14)) + edgepairs_((20,_21),_(13,_14))
 - nodepairs_(20,_13) - nodepairs_(20,_14) <= 0
_C1315: edgepairs_((19,_20),_(14,_15)) + edgepairs_((20,_21),_(14,_15))
 - nodepairs_(20,_14) - nodepairs_(20,_15) <= 0
_C1316: edgepairs_((19,_20),_(15,_16)) + edgepairs_((20,_21),_(15,_16))
 - nodepairs_(20,_15) - nodepairs_(20,_16) <= 0
_C1317: - nodepairs_(20,_17) <= 0
_C1318: - nodepairs_(20,_19) <= 0
_C1319: - nodepairs_(20,_19) <= 0
_C132: edgepairs_((19,_20),_(0,_1)) + edgepairs_((19,_20),_(0,_17))
 + edgepairs_((19,_20),_(10,_11)) + edgepairs_((19,_20),_(11,_12))
 + edgepairs_((19,_20),_(12,_13)) + edgepairs_((19,_20),_(13,_14))
 + edgepairs_((19,_20),_(14,_15)) + edgepairs_((19,_20),_(15,_16))
 + edgepairs_((19,_20),_(19,_21)) + edgepairs_((19,_20),_(21,_22))
 + edgepairs_((19,_20),_(22,_23)) + edgepairs_((19,_20),_(23,_24))
 + edgepairs_((19,_20),_(24,_25)) + edgepairs_((19,_20),_(25,_26))
 + edgepairs_((19,_20),_(26,_27)) + edgepairs_((19,_20),_(27,_28))
 + edgepairs_((19,_20),_(28,_29)) + edgepairs_((19,_20),_(29,_30))
 + edgepairs_((19,_20),_(3,_5)) + edgepairs_((19,_20),_(30,_31))
 + edgepairs_((19,_20),_(31,_32)) + edgepairs_((19,_20),_(32,_33))
 + edgepairs_((19,_20),_(33,_34)) + edgepairs_((19,_20),_(34,_35))
 + edgepairs_((19,_20),_(35,_36)) + edgepairs_((19,_20),_(36,_37))
 + edgepairs_((19,_20),_(37,_38)) + edgepairs_((19,_20),_(37,_39))
 + edgepairs_((19,_20),_(39,_40)) + edgepairs_((19,_20),_(42,_44))
 + edgepairs_((19,_20),_(44,_45)) + edgepairs_((19,_20),_(45,_46))
 + edgepairs_((19,_20),_(46,_47)) + edgepairs_((19,_20),_(47,_48))
 + edgepairs_((19,_20),_(48,_49)) + edgepairs_((19,_20),_(49,_50))
 + edgepairs_((19,_20),_(5,_6)) + edgepairs_((19,_20),_(50,_51))
 + edgepairs_((19,_20),_(51,_52)) + edgepairs_((19,_20),_(52,_53))
 + edgepairs_((19,_20),_(53,_54)) + edgepairs_((19,_20),_(6,_7))
 + edgepairs_((19,_20),_(7,_8)) + edgepairs_((19,_20),_(8,_9))
 + edgepairs_((19,_20),_(9,_10)) + edgepairs_((19,_20),__1) = 1
_C1320: edgepairs_((19,_20),_(19,_21)) + edgepairs_((20,_21),_(19,_21))
 - nodepairs_(20,_19) - nodepairs_(20,_21) <= 0
_C1321: edgepairs_((19,_20),_(21,_22)) + edgepairs_((20,_21),_(21,_22))
 - nodepairs_(20,_21) - nodepairs_(20,_22) <= 0
_C1322: edgepairs_((19,_20),_(22,_23)) + edgepairs_((20,_21),_(22,_23))
 - nodepairs_(20,_22) - nodepairs_(20,_23) <= 0
_C1323: edgepairs_((19,_20),_(23,_24)) + edgepairs_((20,_21),_(23,_24))
 - nodepairs_(20,_23) - nodepairs_(20,_24) <= 0
_C1324: edgepairs_((19,_20),_(24,_25)) + edgepairs_((20,_21),_(24,_25))
 - nodepairs_(20,_24) - nodepairs_(20,_25) <= 0
_C1325: edgepairs_((19,_20),_(25,_26)) + edgepairs_((20,_21),_(25,_26))
 - nodepairs_(20,_25) - nodepairs_(20,_26) <= 0
_C1326: edgepairs_((19,_20),_(26,_27)) + edgepairs_((20,_21),_(26,_27))
 - nodepairs_(20,_26) - nodepairs_(20,_27) <= 0
_C1327: edgepairs_((19,_20),_(27,_28)) + edgepairs_((20,_21),_(27,_28))
 - nodepairs_(20,_27) - nodepairs_(20,_28) <= 0
_C1328: edgepairs_((19,_20),_(28,_29)) + edgepairs_((20,_21),_(28,_29))
 - nodepairs_(20,_28) - nodepairs_(20,_29) <= 0
_C1329: edgepairs_((19,_20),_(29,_30)) + edgepairs_((20,_21),_(29,_30))
 - nodepairs_(20,_29) - nodepairs_(20,_30) <= 0
_C133: edgepairs_((20,_21),_(0,_1)) + edgepairs_((20,_21),_(0,_17))
 + edgepairs_((20,_21),_(10,_11)) + edgepairs_((20,_21),_(11,_12))
 + edgepairs_((20,_21),_(12,_13)) + edgepairs_((20,_21),_(13,_14))
 + edgepairs_((20,_21),_(14,_15)) + edgepairs_((20,_21),_(15,_16))
 + edgepairs_((20,_21),_(19,_21)) + edgepairs_((20,_21),_(21,_22))
 + edgepairs_((20,_21),_(22,_23)) + edgepairs_((20,_21),_(23,_24))
 + edgepairs_((20,_21),_(24,_25)) + edgepairs_((20,_21),_(25,_26))
 + edgepairs_((20,_21),_(26,_27)) + edgepairs_((20,_21),_(27,_28))
 + edgepairs_((20,_21),_(28,_29)) + edgepairs_((20,_21),_(29,_30))
 + edgepairs_((20,_21),_(3,_5)) + edgepairs_((20,_21),_(30,_31))
 + edgepairs_((20,_21),_(31,_32)) + edgepairs_((20,_21),_(32,_33))
 + edgepairs_((20,_21),_(33,_34)) + edgepairs_((20,_21),_(34,_35))
 + edgepairs_((20,_21),_(35,_36)) + edgepairs_((20,_21),_(36,_37))
 + edgepairs_((20,_21),_(37,_38)) + edgepairs_((20,_21),_(37,_39))
 + edgepairs_((20,_21),_(39,_40)) + edgepairs_((20,_21),_(42,_44))
 + edgepairs_((20,_21),_(44,_45)) + edgepairs_((20,_21),_(45,_46))
 + edgepairs_((20,_21),_(46,_47)) + edgepairs_((20,_21),_(47,_48))
 + edgepairs_((20,_21),_(48,_49)) + edgepairs_((20,_21),_(49,_50))
 + edgepairs_((20,_21),_(5,_6)) + edgepairs_((20,_21),_(50,_51))
 + edgepairs_((20,_21),_(51,_52)) + edgepairs_((20,_21),_(52,_53))
 + edgepairs_((20,_21),_(53,_54)) + edgepairs_((20,_21),_(6,_7))
 + edgepairs_((20,_21),_(7,_8)) + edgepairs_((20,_21),_(8,_9))
 + edgepairs_((20,_21),_(9,_10)) + edgepairs_((20,_21),__1) = 1
_C1330: edgepairs_((19,_20),_(30,_31)) + edgepairs_((20,_21),_(30,_31))
 - nodepairs_(20,_30) - nodepairs_(20,_31) <= 0
_C1331: edgepairs_((19,_20),_(31,_32)) + edgepairs_((20,_21),_(31,_32))
 - nodepairs_(20,_31) - nodepairs_(20,_32) <= 0
_C1332: edgepairs_((19,_20),_(32,_33)) + edgepairs_((20,_21),_(32,_33))
 - nodepairs_(20,_32) - nodepairs_(20,_33) <= 0
_C1333: edgepairs_((19,_20),_(33,_34)) + edgepairs_((20,_21),_(33,_34))
 - nodepairs_(20,_33) - nodepairs_(20,_34) <= 0
_C1334: edgepairs_((19,_20),_(34,_35)) + edgepairs_((20,_21),_(34,_35))
 - nodepairs_(20,_34) - nodepairs_(20,_35) <= 0
_C1335: edgepairs_((19,_20),_(35,_36)) + edgepairs_((20,_21),_(35,_36))
 - nodepairs_(20,_35) - nodepairs_(20,_36) <= 0
_C1336: edgepairs_((19,_20),_(36,_37)) + edgepairs_((20,_21),_(36,_37))
 - nodepairs_(20,_36) - nodepairs_(20,_37) <= 0
_C1337: edgepairs_((19,_20),_(37,_38)) + edgepairs_((20,_21),_(37,_38))
 - nodepairs_(20,_37) - nodepairs_(20,_38) <= 0
_C1338: edgepairs_((19,_20),_(37,_39)) + edgepairs_((20,_21),_(37,_39))
 - nodepairs_(20,_37) - nodepairs_(20,_39) <= 0
_C1339: edgepairs_((19,_20),_(39,_40)) + edgepairs_((20,_21),_(39,_40))
 - nodepairs_(20,_39) - nodepairs_(20,_40) <= 0
_C134: edgepairs_((21,_22),_(0,_1)) + edgepairs_((21,_22),_(0,_17))
 + edgepairs_((21,_22),_(10,_11)) + edgepairs_((21,_22),_(11,_12))
 + edgepairs_((21,_22),_(12,_13)) + edgepairs_((21,_22),_(13,_14))
 + edgepairs_((21,_22),_(14,_15)) + edgepairs_((21,_22),_(15,_16))
 + edgepairs_((21,_22),_(19,_21)) + edgepairs_((21,_22),_(21,_22))
 + edgepairs_((21,_22),_(22,_23)) + edgepairs_((21,_22),_(23,_24))
 + edgepairs_((21,_22),_(24,_25)) + edgepairs_((21,_22),_(25,_26))
 + edgepairs_((21,_22),_(26,_27)) + edgepairs_((21,_22),_(27,_28))
 + edgepairs_((21,_22),_(28,_29)) + edgepairs_((21,_22),_(29,_30))
 + edgepairs_((21,_22),_(3,_5)) + edgepairs_((21,_22),_(30,_31))
 + edgepairs_((21,_22),_(31,_32)) + edgepairs_((21,_22),_(32,_33))
 + edgepairs_((21,_22),_(33,_34)) + edgepairs_((21,_22),_(34,_35))
 + edgepairs_((21,_22),_(35,_36)) + edgepairs_((21,_22),_(36,_37))
 + edgepairs_((21,_22),_(37,_38)) + edgepairs_((21,_22),_(37,_39))
 + edgepairs_((21,_22),_(39,_40)) + edgepairs_((21,_22),_(42,_44))
 + edgepairs_((21,_22),_(44,_45)) + edgepairs_((21,_22),_(45,_46))
 + edgepairs_((21,_22),_(46,_47)) + edgepairs_((21,_22),_(47,_48))
 + edgepairs_((21,_22),_(48,_49)) + edgepairs_((21,_22),_(49,_50))
 + edgepairs_((21,_22),_(5,_6)) + edgepairs_((21,_22),_(50,_51))
 + edgepairs_((21,_22),_(51,_52)) + edgepairs_((21,_22),_(52,_53))
 + edgepairs_((21,_22),_(53,_54)) + edgepairs_((21,_22),_(6,_7))
 + edgepairs_((21,_22),_(7,_8)) + edgepairs_((21,_22),_(8,_9))
 + edgepairs_((21,_22),_(9,_10)) + edgepairs_((21,_22),__1) = 1
_C1340: - nodepairs_(20,_42) <= 0
_C1341: - nodepairs_(20,_42) <= 0
_C1342: edgepairs_((19,_20),_(42,_44)) + edgepairs_((20,_21),_(42,_44))
 - nodepairs_(20,_42) - nodepairs_(20,_44) <= 0
_C1343: edgepairs_((19,_20),_(44,_45)) + edgepairs_((20,_21),_(44,_45))
 - nodepairs_(20,_44) - nodepairs_(20,_45) <= 0
_C1344: edgepairs_((19,_20),_(45,_46)) + edgepairs_((20,_21),_(45,_46))
 - nodepairs_(20,_45) - nodepairs_(20,_46) <= 0
_C1345: edgepairs_((19,_20),_(46,_47)) + edgepairs_((20,_21),_(46,_47))
 - nodepairs_(20,_46) - nodepairs_(20,_47) <= 0
_C1346: edgepairs_((19,_20),_(47,_48)) + edgepairs_((20,_21),_(47,_48))
 - nodepairs_(20,_47) - nodepairs_(20,_48) <= 0
_C1347: edgepairs_((19,_20),_(48,_49)) + edgepairs_((20,_21),_(48,_49))
 - nodepairs_(20,_48) - nodepairs_(20,_49) <= 0
_C1348: edgepairs_((19,_20),_(49,_50)) + edgepairs_((20,_21),_(49,_50))
 - nodepairs_(20,_49) - nodepairs_(20,_50) <= 0
_C1349: edgepairs_((19,_20),_(50,_51)) + edgepairs_((20,_21),_(50,_51))
 - nodepairs_(20,_50) - nodepairs_(20,_51) <= 0
_C135: edgepairs_((22,_23),_(0,_1)) + edgepairs_((22,_23),_(0,_17))
 + edgepairs_((22,_23),_(10,_11)) + edgepairs_((22,_23),_(11,_12))
 + edgepairs_((22,_23),_(12,_13)) + edgepairs_((22,_23),_(13,_14))
 + edgepairs_((22,_23),_(14,_15)) + edgepairs_((22,_23),_(15,_16))
 + edgepairs_((22,_23),_(19,_21)) + edgepairs_((22,_23),_(21,_22))
 + edgepairs_((22,_23),_(22,_23)) + edgepairs_((22,_23),_(23,_24))
 + edgepairs_((22,_23),_(24,_25)) + edgepairs_((22,_23),_(25,_26))
 + edgepairs_((22,_23),_(26,_27)) + edgepairs_((22,_23),_(27,_28))
 + edgepairs_((22,_23),_(28,_29)) + edgepairs_((22,_23),_(29,_30))
 + edgepairs_((22,_23),_(3,_5)) + edgepairs_((22,_23),_(30,_31))
 + edgepairs_((22,_23),_(31,_32)) + edgepairs_((22,_23),_(32,_33))
 + edgepairs_((22,_23),_(33,_34)) + edgepairs_((22,_23),_(34,_35))
 + edgepairs_((22,_23),_(35,_36)) + edgepairs_((22,_23),_(36,_37))
 + edgepairs_((22,_23),_(37,_38)) + edgepairs_((22,_23),_(37,_39))
 + edgepairs_((22,_23),_(39,_40)) + edgepairs_((22,_23),_(42,_44))
 + edgepairs_((22,_23),_(44,_45)) + edgepairs_((22,_23),_(45,_46))
 + edgepairs_((22,_23),_(46,_47)) + edgepairs_((22,_23),_(47,_48))
 + edgepairs_((22,_23),_(48,_49)) + edgepairs_((22,_23),_(49,_50))
 + edgepairs_((22,_23),_(5,_6)) + edgepairs_((22,_23),_(50,_51))
 + edgepairs_((22,_23),_(51,_52)) + edgepairs_((22,_23),_(52,_53))
 + edgepairs_((22,_23),_(53,_54)) + edgepairs_((22,_23),_(6,_7))
 + edgepairs_((22,_23),_(7,_8)) + edgepairs_((22,_23),_(8,_9))
 + edgepairs_((22,_23),_(9,_10)) + edgepairs_((22,_23),__1) = 1
_C1350: edgepairs_((19,_20),_(51,_52)) + edgepairs_((20,_21),_(51,_52))
 - nodepairs_(20,_51) - nodepairs_(20,_52) <= 0
_C1351: edgepairs_((19,_20),_(52,_53)) + edgepairs_((20,_21),_(52,_53))
 - nodepairs_(20,_52) - nodepairs_(20,_53) <= 0
_C1352: edgepairs_((19,_20),_(53,_54)) + edgepairs_((20,_21),_(53,_54))
 - nodepairs_(20,_53) - nodepairs_(20,_54) <= 0
_C1353: edgepairs_((20,_21),_(0,_1)) + edgepairs_((21,_22),_(0,_1))
 - nodepairs_(21,_0) - nodepairs_(21,_1) <= 0
_C1354: edgepairs_((20,_21),_(0,_17)) + edgepairs_((21,_22),_(0,_17))
 - nodepairs_(21,_0) - nodepairs_(21,_17) <= 0
_C1355: - nodepairs_(21,_0) <= 0
_C1356: - nodepairs_(21,_1) <= 0
_C1357: - nodepairs_(21,_3) <= 0
_C1358: - nodepairs_(21,_3) <= 0
_C1359: edgepairs_((20,_21),_(3,_5)) + edgepairs_((21,_22),_(3,_5))
 - nodepairs_(21,_3) - nodepairs_(21,_5) <= 0
_C136: edgepairs_((23,_24),_(0,_1)) + edgepairs_((23,_24),_(0,_17))
 + edgepairs_((23,_24),_(10,_11)) + edgepairs_((23,_24),_(11,_12))
 + edgepairs_((23,_24),_(12,_13)) + edgepairs_((23,_24),_(13,_14))
 + edgepairs_((23,_24),_(14,_15)) + edgepairs_((23,_24),_(15,_16))
 + edgepairs_((23,_24),_(19,_21)) + edgepairs_((23,_24),_(21,_22))
 + edgepairs_((23,_24),_(22,_23)) + edgepairs_((23,_24),_(23,_24))
 + edgepairs_((23,_24),_(24,_25)) + edgepairs_((23,_24),_(25,_26))
 + edgepairs_((23,_24),_(26,_27)) + edgepairs_((23,_24),_(27,_28))
 + edgepairs_((23,_24),_(28,_29)) + edgepairs_((23,_24),_(29,_30))
 + edgepairs_((23,_24),_(3,_5)) + edgepairs_((23,_24),_(30,_31))
 + edgepairs_((23,_24),_(31,_32)) + edgepairs_((23,_24),_(32,_33))
 + edgepairs_((23,_24),_(33,_34)) + edgepairs_((23,_24),_(34,_35))
 + edgepairs_((23,_24),_(35,_36)) + edgepairs_((23,_24),_(36,_37))
 + edgepairs_((23,_24),_(37,_38)) + edgepairs_((23,_24),_(37,_39))
 + edgepairs_((23,_24),_(39,_40)) + edgepairs_((23,_24),_(42,_44))
 + edgepairs_((23,_24),_(44,_45)) + edgepairs_((23,_24),_(45,_46))
 + edgepairs_((23,_24),_(46,_47)) + edgepairs_((23,_24),_(47,_48))
 + edgepairs_((23,_24),_(48,_49)) + edgepairs_((23,_24),_(49,_50))
 + edgepairs_((23,_24),_(5,_6)) + edgepairs_((23,_24),_(50,_51))
 + edgepairs_((23,_24),_(51,_52)) + edgepairs_((23,_24),_(52,_53))
 + edgepairs_((23,_24),_(53,_54)) + edgepairs_((23,_24),_(6,_7))
 + edgepairs_((23,_24),_(7,_8)) + edgepairs_((23,_24),_(8,_9))
 + edgepairs_((23,_24),_(9,_10)) + edgepairs_((23,_24),__1) = 1
_C1360: edgepairs_((20,_21),_(5,_6)) + edgepairs_((21,_22),_(5,_6))
 - nodepairs_(21,_5) - nodepairs_(21,_6) <= 0
_C1361: edgepairs_((20,_21),_(6,_7)) + edgepairs_((21,_22),_(6,_7))
 - nodepairs_(21,_6) - nodepairs_(21,_7) <= 0
_C1362: edgepairs_((20,_21),_(7,_8)) + edgepairs_((21,_22),_(7,_8))
 - nodepairs_(21,_7) - nodepairs_(21,_8) <= 0
_C1363: edgepairs_((20,_21),_(8,_9)) + edgepairs_((21,_22),_(8,_9))
 - nodepairs_(21,_8) - nodepairs_(21,_9) <= 0
_C1364: edgepairs_((20,_21),_(9,_10)) + edgepairs_((21,_22),_(9,_10))
 - nodepairs_(21,_10) - nodepairs_(21,_9) <= 0
_C1365: edgepairs_((20,_21),_(10,_11)) + edgepairs_((21,_22),_(10,_11))
 - nodepairs_(21,_10) - nodepairs_(21,_11) <= 0
_C1366: edgepairs_((20,_21),_(11,_12)) + edgepairs_((21,_22),_(11,_12))
 - nodepairs_(21,_11) - nodepairs_(21,_12) <= 0
_C1367: edgepairs_((20,_21),_(12,_13)) + edgepairs_((21,_22),_(12,_13))
 - nodepairs_(21,_12) - nodepairs_(21,_13) <= 0
_C1368: edgepairs_((20,_21),_(13,_14)) + edgepairs_((21,_22),_(13,_14))
 - nodepairs_(21,_13) - nodepairs_(21,_14) <= 0
_C1369: edgepairs_((20,_21),_(14,_15)) + edgepairs_((21,_22),_(14,_15))
 - nodepairs_(21,_14) - nodepairs_(21,_15) <= 0
_C137: edgepairs_((23,_25),_(0,_1)) + edgepairs_((23,_25),_(0,_17))
 + edgepairs_((23,_25),_(10,_11)) + edgepairs_((23,_25),_(11,_12))
 + edgepairs_((23,_25),_(12,_13)) + edgepairs_((23,_25),_(13,_14))
 + edgepairs_((23,_25),_(14,_15)) + edgepairs_((23,_25),_(15,_16))
 + edgepairs_((23,_25),_(19,_21)) + edgepairs_((23,_25),_(21,_22))
 + edgepairs_((23,_25),_(22,_23)) + edgepairs_((23,_25),_(23,_24))
 + edgepairs_((23,_25),_(24,_25)) + edgepairs_((23,_25),_(25,_26))
 + edgepairs_((23,_25),_(26,_27)) + edgepairs_((23,_25),_(27,_28))
 + edgepairs_((23,_25),_(28,_29)) + edgepairs_((23,_25),_(29,_30))
 + edgepairs_((23,_25),_(3,_5)) + edgepairs_((23,_25),_(30,_31))
 + edgepairs_((23,_25),_(31,_32)) + edgepairs_((23,_25),_(32,_33))
 + edgepairs_((23,_25),_(33,_34)) + edgepairs_((23,_25),_(34,_35))
 + edgepairs_((23,_25),_(35,_36)) + edgepairs_((23,_25),_(36,_37))
 + edgepairs_((23,_25),_(37,_38)) + edgepairs_((23,_25),_(37,_39))
 + edgepairs_((23,_25),_(39,_40)) + edgepairs_((23,_25),_(42,_44))
 + edgepairs_((23,_25),_(44,_45)) + edgepairs_((23,_25),_(45,_46))
 + edgepairs_((23,_25),_(46,_47)) + edgepairs_((23,_25),_(47,_48))
 + edgepairs_((23,_25),_(48,_49)) + edgepairs_((23,_25),_(49,_50))
 + edgepairs_((23,_25),_(5,_6)) + edgepairs_((23,_25),_(50,_51))
 + edgepairs_((23,_25),_(51,_52)) + edgepairs_((23,_25),_(52,_53))
 + edgepairs_((23,_25),_(53,_54)) + edgepairs_((23,_25),_(6,_7))
 + edgepairs_((23,_25),_(7,_8)) + edgepairs_((23,_25),_(8,_9))
 + edgepairs_((23,_25),_(9,_10)) + edgepairs_((23,_25),__1) = 1
_C1370: edgepairs_((20,_21),_(15,_16)) + edgepairs_((21,_22),_(15,_16))
 - nodepairs_(21,_15) - nodepairs_(21,_16) <= 0
_C1371: - nodepairs_(21,_17) <= 0
_C1372: - nodepairs_(21,_19) <= 0
_C1373: - nodepairs_(21,_19) <= 0
_C1374: edgepairs_((20,_21),_(19,_21)) + edgepairs_((21,_22),_(19,_21))
 - nodepairs_(21,_19) - nodepairs_(21,_21) <= 0
_C1375: edgepairs_((20,_21),_(21,_22)) + edgepairs_((21,_22),_(21,_22))
 - nodepairs_(21,_21) - nodepairs_(21,_22) <= 0
_C1376: edgepairs_((20,_21),_(22,_23)) + edgepairs_((21,_22),_(22,_23))
 - nodepairs_(21,_22) - nodepairs_(21,_23) <= 0
_C1377: edgepairs_((20,_21),_(23,_24)) + edgepairs_((21,_22),_(23,_24))
 - nodepairs_(21,_23) - nodepairs_(21,_24) <= 0
_C1378: edgepairs_((20,_21),_(24,_25)) + edgepairs_((21,_22),_(24,_25))
 - nodepairs_(21,_24) - nodepairs_(21,_25) <= 0
_C1379: edgepairs_((20,_21),_(25,_26)) + edgepairs_((21,_22),_(25,_26))
 - nodepairs_(21,_25) - nodepairs_(21,_26) <= 0
_C138: edgepairs_((26,_27),_(0,_41)) + edgepairs_((26,_27),_(1,_2))
 + edgepairs_((26,_27),_(17,_18)) + edgepairs_((26,_27),_(18,_19))
 + edgepairs_((26,_27),_(19,_20)) + edgepairs_((26,_27),_(2,_3))
 + edgepairs_((26,_27),_(3,_4)) + edgepairs_((26,_27),_(41,_42))
 + edgepairs_((26,_27),_(42,_43)) + edgepairs_((26,_27),__1) = 1
_C1380: edgepairs_((20,_21),_(26,_27)) + edgepairs_((21,_22),_(26,_27))
 - nodepairs_(21,_26) - nodepairs_(21,_27) <= 0
_C1381: edgepairs_((20,_21),_(27,_28)) + edgepairs_((21,_22),_(27,_28))
 - nodepairs_(21,_27) - nodepairs_(21,_28) <= 0
_C1382: edgepairs_((20,_21),_(28,_29)) + edgepairs_((21,_22),_(28,_29))
 - nodepairs_(21,_28) - nodepairs_(21,_29) <= 0
_C1383: edgepairs_((20,_21),_(29,_30)) + edgepairs_((21,_22),_(29,_30))
 - nodepairs_(21,_29) - nodepairs_(21,_30) <= 0
_C1384: edgepairs_((20,_21),_(30,_31)) + edgepairs_((21,_22),_(30,_31))
 - nodepairs_(21,_30) - nodepairs_(21,_31) <= 0
_C1385: edgepairs_((20,_21),_(31,_32)) + edgepairs_((21,_22),_(31,_32))
 - nodepairs_(21,_31) - nodepairs_(21,_32) <= 0
_C1386: edgepairs_((20,_21),_(32,_33)) + edgepairs_((21,_22),_(32,_33))
 - nodepairs_(21,_32) - nodepairs_(21,_33) <= 0
_C1387: edgepairs_((20,_21),_(33,_34)) + edgepairs_((21,_22),_(33,_34))
 - nodepairs_(21,_33) - nodepairs_(21,_34) <= 0
_C1388: edgepairs_((20,_21),_(34,_35)) + edgepairs_((21,_22),_(34,_35))
 - nodepairs_(21,_34) - nodepairs_(21,_35) <= 0
_C1389: edgepairs_((20,_21),_(35,_36)) + edgepairs_((21,_22),_(35,_36))
 - nodepairs_(21,_35) - nodepairs_(21,_36) <= 0
_C139: edgepairs_((27,_28),_(0,_41)) + edgepairs_((27,_28),_(1,_2))
 + edgepairs_((27,_28),_(17,_18)) + edgepairs_((27,_28),_(18,_19))
 + edgepairs_((27,_28),_(19,_20)) + edgepairs_((27,_28),_(2,_3))
 + edgepairs_((27,_28),_(3,_4)) + edgepairs_((27,_28),_(41,_42))
 + edgepairs_((27,_28),_(42,_43)) + edgepairs_((27,_28),__1) = 1
_C1390: edgepairs_((20,_21),_(36,_37)) + edgepairs_((21,_22),_(36,_37))
 - nodepairs_(21,_36) - nodepairs_(21,_37) <= 0
_C1391: edgepairs_((20,_21),_(37,_38)) + edgepairs_((21,_22),_(37,_38))
 - nodepairs_(21,_37) - nodepairs_(21,_38) <= 0
_C1392: edgepairs_((20,_21),_(37,_39)) + edgepairs_((21,_22),_(37,_39))
 - nodepairs_(21,_37) - nodepairs_(21,_39) <= 0
_C1393: edgepairs_((20,_21),_(39,_40)) + edgepairs_((21,_22),_(39,_40))
 - nodepairs_(21,_39) - nodepairs_(21,_40) <= 0
_C1394: - nodepairs_(21,_42) <= 0
_C1395: - nodepairs_(21,_42) <= 0
_C1396: edgepairs_((20,_21),_(42,_44)) + edgepairs_((21,_22),_(42,_44))
 - nodepairs_(21,_42) - nodepairs_(21,_44) <= 0
_C1397: edgepairs_((20,_21),_(44,_45)) + edgepairs_((21,_22),_(44,_45))
 - nodepairs_(21,_44) - nodepairs_(21,_45) <= 0
_C1398: edgepairs_((20,_21),_(45,_46)) + edgepairs_((21,_22),_(45,_46))
 - nodepairs_(21,_45) - nodepairs_(21,_46) <= 0
_C1399: edgepairs_((20,_21),_(46,_47)) + edgepairs_((21,_22),_(46,_47))
 - nodepairs_(21,_46) - nodepairs_(21,_47) <= 0
_C14: nodepairs_(13,_0) + nodepairs_(13,_1) + nodepairs_(13,_10)
 + nodepairs_(13,_11) + nodepairs_(13,_12) + nodepairs_(13,_13)
 + nodepairs_(13,_14) + nodepairs_(13,_15) + nodepairs_(13,_16)
 + nodepairs_(13,_17) + nodepairs_(13,_19) + nodepairs_(13,_21)
 + nodepairs_(13,_22) + nodepairs_(13,_23) + nodepairs_(13,_24)
 + nodepairs_(13,_25) + nodepairs_(13,_26) + nodepairs_(13,_27)
 + nodepairs_(13,_28) + nodepairs_(13,_29) + nodepairs_(13,_3)
 + nodepairs_(13,_30) + nodepairs_(13,_31) + nodepairs_(13,_32)
 + nodepairs_(13,_33) + nodepairs_(13,_34) + nodepairs_(13,_35)
 + nodepairs_(13,_36) + nodepairs_(13,_37) + nodepairs_(13,_38)
 + nodepairs_(13,_39) + nodepairs_(13,_40) + nodepairs_(13,_42)
 + nodepairs_(13,_44) + nodepairs_(13,_45) + nodepairs_(13,_46)
 + nodepairs_(13,_47) + nodepairs_(13,_48) + nodepairs_(13,_49)
 + nodepairs_(13,_5) + nodepairs_(13,_50) + nodepairs_(13,_51)
 + nodepairs_(13,_52) + nodepairs_(13,_53) + nodepairs_(13,_54)
 + nodepairs_(13,_6) + nodepairs_(13,_7) + nodepairs_(13,_8)
 + nodepairs_(13,_9) <= 1
_C140: edgepairs_((28,_29),_(0,_41)) + edgepairs_((28,_29),_(1,_2))
 + edgepairs_((28,_29),_(17,_18)) + edgepairs_((28,_29),_(18,_19))
 + edgepairs_((28,_29),_(19,_20)) + edgepairs_((28,_29),_(2,_3))
 + edgepairs_((28,_29),_(3,_4)) + edgepairs_((28,_29),_(41,_42))
 + edgepairs_((28,_29),_(42,_43)) + edgepairs_((28,_29),__1) = 1
_C1400: edgepairs_((20,_21),_(47,_48)) + edgepairs_((21,_22),_(47,_48))
 - nodepairs_(21,_47) - nodepairs_(21,_48) <= 0
_C1401: edgepairs_((20,_21),_(48,_49)) + edgepairs_((21,_22),_(48,_49))
 - nodepairs_(21,_48) - nodepairs_(21,_49) <= 0
_C1402: edgepairs_((20,_21),_(49,_50)) + edgepairs_((21,_22),_(49,_50))
 - nodepairs_(21,_49) - nodepairs_(21,_50) <= 0
_C1403: edgepairs_((20,_21),_(50,_51)) + edgepairs_((21,_22),_(50,_51))
 - nodepairs_(21,_50) - nodepairs_(21,_51) <= 0
_C1404: edgepairs_((20,_21),_(51,_52)) + edgepairs_((21,_22),_(51,_52))
 - nodepairs_(21,_51) - nodepairs_(21,_52) <= 0
_C1405: edgepairs_((20,_21),_(52,_53)) + edgepairs_((21,_22),_(52,_53))
 - nodepairs_(21,_52) - nodepairs_(21,_53) <= 0
_C1406: edgepairs_((20,_21),_(53,_54)) + edgepairs_((21,_22),_(53,_54))
 - nodepairs_(21,_53) - nodepairs_(21,_54) <= 0
_C1407: edgepairs_((21,_22),_(0,_1)) + edgepairs_((22,_23),_(0,_1))
 - nodepairs_(22,_0) - nodepairs_(22,_1) <= 0
_C1408: edgepairs_((21,_22),_(0,_17)) + edgepairs_((22,_23),_(0,_17))
 - nodepairs_(22,_0) - nodepairs_(22,_17) <= 0
_C1409: - nodepairs_(22,_0) <= 0
_C141: edgepairs_((28,_30),_(0,_1)) + edgepairs_((28,_30),_(0,_17))
 + edgepairs_((28,_30),_(10,_11)) + edgepairs_((28,_30),_(11,_12))
 + edgepairs_((28,_30),_(12,_13)) + edgepairs_((28,_30),_(13,_14))
 + edgepairs_((28,_30),_(14,_15)) + edgepairs_((28,_30),_(15,_16))
 + edgepairs_((28,_30),_(19,_21)) + edgepairs_((28,_30),_(21,_22))
 + edgepairs_((28,_30),_(22,_23)) + edgepairs_((28,_30),_(23,_24))
 + edgepairs_((28,_30),_(24,_25)) + edgepairs_((28,_30),_(25,_26))
 + edgepairs_((28,_30),_(26,_27)) + edgepairs_((28,_30),_(27,_28))
 + edgepairs_((28,_30),_(28,_29)) + edgepairs_((28,_30),_(29,_30))
 + edgepairs_((28,_30),_(3,_5)) + edgepairs_((28,_30),_(30,_31))
 + edgepairs_((28,_30),_(31,_32)) + edgepairs_((28,_30),_(32,_33))
 + edgepairs_((28,_30),_(33,_34)) + edgepairs_((28,_30),_(34,_35))
 + edgepairs_((28,_30),_(35,_36)) + edgepairs_((28,_30),_(36,_37))
 + edgepairs_((28,_30),_(37,_38)) + edgepairs_((28,_30),_(37,_39))
 + edgepairs_((28,_30),_(39,_40)) + edgepairs_((28,_30),_(42,_44))
 + edgepairs_((28,_30),_(44,_45)) + edgepairs_((28,_30),_(45,_46))
 + edgepairs_((28,_30),_(46,_47)) + edgepairs_((28,_30),_(47,_48))
 + edgepairs_((28,_30),_(48,_49)) + edgepairs_((28,_30),_(49,_50))
 + edgepairs_((28,_30),_(5,_6)) + edgepairs_((28,_30),_(50,_51))
 + edgepairs_((28,_30),_(51,_52)) + edgepairs_((28,_30),_(52,_53))
 + edgepairs_((28,_30),_(53,_54)) + edgepairs_((28,_30),_(6,_7))
 + edgepairs_((28,_30),_(7,_8)) + edgepairs_((28,_30),_(8,_9))
 + edgepairs_((28,_30),_(9,_10)) + edgepairs_((28,_30),__1) = 1
_C1410: - nodepairs_(22,_1) <= 0
_C1411: - nodepairs_(22,_3) <= 0
_C1412: - nodepairs_(22,_3) <= 0
_C1413: edgepairs_((21,_22),_(3,_5)) + edgepairs_((22,_23),_(3,_5))
 - nodepairs_(22,_3) - nodepairs_(22,_5) <= 0
_C1414: edgepairs_((21,_22),_(5,_6)) + edgepairs_((22,_23),_(5,_6))
 - nodepairs_(22,_5) - nodepairs_(22,_6) <= 0
_C1415: edgepairs_((21,_22),_(6,_7)) + edgepairs_((22,_23),_(6,_7))
 - nodepairs_(22,_6) - nodepairs_(22,_7) <= 0
_C1416: edgepairs_((21,_22),_(7,_8)) + edgepairs_((22,_23),_(7,_8))
 - nodepairs_(22,_7) - nodepairs_(22,_8) <= 0
_C1417: edgepairs_((21,_22),_(8,_9)) + edgepairs_((22,_23),_(8,_9))
 - nodepairs_(22,_8) - nodepairs_(22,_9) <= 0
_C1418: edgepairs_((21,_22),_(9,_10)) + edgepairs_((22,_23),_(9,_10))
 - nodepairs_(22,_10) - nodepairs_(22,_9) <= 0
_C1419: edgepairs_((21,_22),_(10,_11)) + edgepairs_((22,_23),_(10,_11))
 - nodepairs_(22,_10) - nodepairs_(22,_11) <= 0
_C142: edgepairs_((30,_31),_(0,_1)) + edgepairs_((30,_31),_(0,_17))
 + edgepairs_((30,_31),_(10,_11)) + edgepairs_((30,_31),_(11,_12))
 + edgepairs_((30,_31),_(12,_13)) + edgepairs_((30,_31),_(13,_14))
 + edgepairs_((30,_31),_(14,_15)) + edgepairs_((30,_31),_(15,_16))
 + edgepairs_((30,_31),_(19,_21)) + edgepairs_((30,_31),_(21,_22))
 + edgepairs_((30,_31),_(22,_23)) + edgepairs_((30,_31),_(23,_24))
 + edgepairs_((30,_31),_(24,_25)) + edgepairs_((30,_31),_(25,_26))
 + edgepairs_((30,_31),_(26,_27)) + edgepairs_((30,_31),_(27,_28))
 + edgepairs_((30,_31),_(28,_29)) + edgepairs_((30,_31),_(29,_30))
 + edgepairs_((30,_31),_(3,_5)) + edgepairs_((30,_31),_(30,_31))
 + edgepairs_((30,_31),_(31,_32)) + edgepairs_((30,_31),_(32,_33))
 + edgepairs_((30,_31),_(33,_34)) + edgepairs_((30,_31),_(34,_35))
 + edgepairs_((30,_31),_(35,_36)) + edgepairs_((30,_31),_(36,_37))
 + edgepairs_((30,_31),_(37,_38)) + edgepairs_((30,_31),_(37,_39))
 + edgepairs_((30,_31),_(39,_40)) + edgepairs_((30,_31),_(42,_44))
 + edgepairs_((30,_31),_(44,_45)) + edgepairs_((30,_31),_(45,_46))
 + edgepairs_((30,_31),_(46,_47)) + edgepairs_((30,_31),_(47,_48))
 + edgepairs_((30,_31),_(48,_49)) + edgepairs_((30,_31),_(49,_50))
 + edgepairs_((30,_31),_(5,_6)) + edgepairs_((30,_31),_(50,_51))
 + edgepairs_((30,_31),_(51,_52)) + edgepairs_((30,_31),_(52,_53))
 + edgepairs_((30,_31),_(53,_54)) + edgepairs_((30,_31),_(6,_7))
 + edgepairs_((30,_31),_(7,_8)) + edgepairs_((30,_31),_(8,_9))
 + edgepairs_((30,_31),_(9,_10)) + edgepairs_((30,_31),__1) = 1
_C1420: edgepairs_((21,_22),_(11,_12)) + edgepairs_((22,_23),_(11,_12))
 - nodepairs_(22,_11) - nodepairs_(22,_12) <= 0
_C1421: edgepairs_((21,_22),_(12,_13)) + edgepairs_((22,_23),_(12,_13))
 - nodepairs_(22,_12) - nodepairs_(22,_13) <= 0
_C1422: edgepairs_((21,_22),_(13,_14)) + edgepairs_((22,_23),_(13,_14))
 - nodepairs_(22,_13) - nodepairs_(22,_14) <= 0
_C1423: edgepairs_((21,_22),_(14,_15)) + edgepairs_((22,_23),_(14,_15))
 - nodepairs_(22,_14) - nodepairs_(22,_15) <= 0
_C1424: edgepairs_((21,_22),_(15,_16)) + edgepairs_((22,_23),_(15,_16))
 - nodepairs_(22,_15) - nodepairs_(22,_16) <= 0
_C1425: - nodepairs_(22,_17) <= 0
_C1426: - nodepairs_(22,_19) <= 0
_C1427: - nodepairs_(22,_19) <= 0
_C1428: edgepairs_((21,_22),_(19,_21)) + edgepairs_((22,_23),_(19,_21))
 - nodepairs_(22,_19) - nodepairs_(22,_21) <= 0
_C1429: edgepairs_((21,_22),_(21,_22)) + edgepairs_((22,_23),_(21,_22))
 - nodepairs_(22,_21) - nodepairs_(22,_22) <= 0
_C143: edgepairs_((31,_32),_(0,_1)) + edgepairs_((31,_32),_(0,_17))
 + edgepairs_((31,_32),_(10,_11)) + edgepairs_((31,_32),_(11,_12))
 + edgepairs_((31,_32),_(12,_13)) + edgepairs_((31,_32),_(13,_14))
 + edgepairs_((31,_32),_(14,_15)) + edgepairs_((31,_32),_(15,_16))
 + edgepairs_((31,_32),_(19,_21)) + edgepairs_((31,_32),_(21,_22))
 + edgepairs_((31,_32),_(22,_23)) + edgepairs_((31,_32),_(23,_24))
 + edgepairs_((31,_32),_(24,_25)) + edgepairs_((31,_32),_(25,_26))
 + edgepairs_((31,_32),_(26,_27)) + edgepairs_((31,_32),_(27,_28))
 + edgepairs_((31,_32),_(28,_29)) + edgepairs_((31,_32),_(29,_30))
 + edgepairs_((31,_32),_(3,_5)) + edgepairs_((31,_32),_(30,_31))
 + edgepairs_((31,_32),_(31,_32)) + edgepairs_((31,_32),_(32,_33))
 + edgepairs_((31,_32),_(33,_34)) + edgepairs_((31,_32),_(34,_35))
 + edgepairs_((31,_32),_(35,_36)) + edgepairs_((31,_32),_(36,_37))
 + edgepairs_((31,_32),_(37,_38)) + edgepairs_((31,_32),_(37,_39))
 + edgepairs_((31,_32),_(39,_40)) + edgepairs_((31,_32),_(42,_44))
 + edgepairs_((31,_32),_(44,_45)) + edgepairs_((31,_32),_(45,_46))
 + edgepairs_((31,_32),_(46,_47)) + edgepairs_((31,_32),_(47,_48))
 + edgepairs_((31,_32),_(48,_49)) + edgepairs_((31,_32),_(49,_50))
 + edgepairs_((31,_32),_(5,_6)) + edgepairs_((31,_32),_(50,_51))
 + edgepairs_((31,_32),_(51,_52)) + edgepairs_((31,_32),_(52,_53))
 + edgepairs_((31,_32),_(53,_54)) + edgepairs_((31,_32),_(6,_7))
 + edgepairs_((31,_32),_(7,_8)) + edgepairs_((31,_32),_(8,_9))
 + edgepairs_((31,_32),_(9,_10)) + edgepairs_((31,_32),__1) = 1
_C1430: edgepairs_((21,_22),_(22,_23)) + edgepairs_((22,_23),_(22,_23))
 - nodepairs_(22,_22) - nodepairs_(22,_23) <= 0
_C1431: edgepairs_((21,_22),_(23,_24)) + edgepairs_((22,_23),_(23,_24))
 - nodepairs_(22,_23) - nodepairs_(22,_24) <= 0
_C1432: edgepairs_((21,_22),_(24,_25)) + edgepairs_((22,_23),_(24,_25))
 - nodepairs_(22,_24) - nodepairs_(22,_25) <= 0
_C1433: edgepairs_((21,_22),_(25,_26)) + edgepairs_((22,_23),_(25,_26))
 - nodepairs_(22,_25) - nodepairs_(22,_26) <= 0
_C1434: edgepairs_((21,_22),_(26,_27)) + edgepairs_((22,_23),_(26,_27))
 - nodepairs_(22,_26) - nodepairs_(22,_27) <= 0
_C1435: edgepairs_((21,_22),_(27,_28)) + edgepairs_((22,_23),_(27,_28))
 - nodepairs_(22,_27) - nodepairs_(22,_28) <= 0
_C1436: edgepairs_((21,_22),_(28,_29)) + edgepairs_((22,_23),_(28,_29))
 - nodepairs_(22,_28) - nodepairs_(22,_29) <= 0
_C1437: edgepairs_((21,_22),_(29,_30)) + edgepairs_((22,_23),_(29,_30))
 - nodepairs_(22,_29) - nodepairs_(22,_30) <= 0
_C1438: edgepairs_((21,_22),_(30,_31)) + edgepairs_((22,_23),_(30,_31))
 - nodepairs_(22,_30) - nodepairs_(22,_31) <= 0
_C1439: edgepairs_((21,_22),_(31,_32)) + edgepairs_((22,_23),_(31,_32))
 - nodepairs_(22,_31) - nodepairs_(22,_32) <= 0
_C144: edgepairs_((32,_33),_(0,_1)) + edgepairs_((32,_33),_(0,_17))
 + edgepairs_((32,_33),_(10,_11)) + edgepairs_((32,_33),_(11,_12))
 + edgepairs_((32,_33),_(12,_13)) + edgepairs_((32,_33),_(13,_14))
 + edgepairs_((32,_33),_(14,_15)) + edgepairs_((32,_33),_(15,_16))
 + edgepairs_((32,_33),_(19,_21)) + edgepairs_((32,_33),_(21,_22))
 + edgepairs_((32,_33),_(22,_23)) + edgepairs_((32,_33),_(23,_24))
 + edgepairs_((32,_33),_(24,_25)) + edgepairs_((32,_33),_(25,_26))
 + edgepairs_((32,_33),_(26,_27)) + edgepairs_((32,_33),_(27,_28))
 + edgepairs_((32,_33),_(28,_29)) + edgepairs_((32,_33),_(29,_30))
 + edgepairs_((32,_33),_(3,_5)) + edgepairs_((32,_33),_(30,_31))
 + edgepairs_((32,_33),_(31,_32)) + edgepairs_((32,_33),_(32,_33))
 + edgepairs_((32,_33),_(33,_34)) + edgepairs_((32,_33),_(34,_35))
 + edgepairs_((32,_33),_(35,_36)) + edgepairs_((32,_33),_(36,_37))
 + edgepairs_((32,_33),_(37,_38)) + edgepairs_((32,_33),_(37,_39))
 + edgepairs_((32,_33),_(39,_40)) + edgepairs_((32,_33),_(42,_44))
 + edgepairs_((32,_33),_(44,_45)) + edgepairs_((32,_33),_(45,_46))
 + edgepairs_((32,_33),_(46,_47)) + edgepairs_((32,_33),_(47,_48))
 + edgepairs_((32,_33),_(48,_49)) + edgepairs_((32,_33),_(49,_50))
 + edgepairs_((32,_33),_(5,_6)) + edgepairs_((32,_33),_(50,_51))
 + edgepairs_((32,_33),_(51,_52)) + edgepairs_((32,_33),_(52,_53))
 + edgepairs_((32,_33),_(53,_54)) + edgepairs_((32,_33),_(6,_7))
 + edgepairs_((32,_33),_(7,_8)) + edgepairs_((32,_33),_(8,_9))
 + edgepairs_((32,_33),_(9,_10)) + edgepairs_((32,_33),__1) = 1
_C1440: edgepairs_((21,_22),_(32,_33)) + edgepairs_((22,_23),_(32,_33))
 - nodepairs_(22,_32) - nodepairs_(22,_33) <= 0
_C1441: edgepairs_((21,_22),_(33,_34)) + edgepairs_((22,_23),_(33,_34))
 - nodepairs_(22,_33) - nodepairs_(22,_34) <= 0
_C1442: edgepairs_((21,_22),_(34,_35)) + edgepairs_((22,_23),_(34,_35))
 - nodepairs_(22,_34) - nodepairs_(22,_35) <= 0
_C1443: edgepairs_((21,_22),_(35,_36)) + edgepairs_((22,_23),_(35,_36))
 - nodepairs_(22,_35) - nodepairs_(22,_36) <= 0
_C1444: edgepairs_((21,_22),_(36,_37)) + edgepairs_((22,_23),_(36,_37))
 - nodepairs_(22,_36) - nodepairs_(22,_37) <= 0
_C1445: edgepairs_((21,_22),_(37,_38)) + edgepairs_((22,_23),_(37,_38))
 - nodepairs_(22,_37) - nodepairs_(22,_38) <= 0
_C1446: edgepairs_((21,_22),_(37,_39)) + edgepairs_((22,_23),_(37,_39))
 - nodepairs_(22,_37) - nodepairs_(22,_39) <= 0
_C1447: edgepairs_((21,_22),_(39,_40)) + edgepairs_((22,_23),_(39,_40))
 - nodepairs_(22,_39) - nodepairs_(22,_40) <= 0
_C1448: - nodepairs_(22,_42) <= 0
_C1449: - nodepairs_(22,_42) <= 0
_C145: edgepairs_((33,_34),_(0,_1)) + edgepairs_((33,_34),_(0,_17))
 + edgepairs_((33,_34),_(10,_11)) + edgepairs_((33,_34),_(11,_12))
 + edgepairs_((33,_34),_(12,_13)) + edgepairs_((33,_34),_(13,_14))
 + edgepairs_((33,_34),_(14,_15)) + edgepairs_((33,_34),_(15,_16))
 + edgepairs_((33,_34),_(19,_21)) + edgepairs_((33,_34),_(21,_22))
 + edgepairs_((33,_34),_(22,_23)) + edgepairs_((33,_34),_(23,_24))
 + edgepairs_((33,_34),_(24,_25)) + edgepairs_((33,_34),_(25,_26))
 + edgepairs_((33,_34),_(26,_27)) + edgepairs_((33,_34),_(27,_28))
 + edgepairs_((33,_34),_(28,_29)) + edgepairs_((33,_34),_(29,_30))
 + edgepairs_((33,_34),_(3,_5)) + edgepairs_((33,_34),_(30,_31))
 + edgepairs_((33,_34),_(31,_32)) + edgepairs_((33,_34),_(32,_33))
 + edgepairs_((33,_34),_(33,_34)) + edgepairs_((33,_34),_(34,_35))
 + edgepairs_((33,_34),_(35,_36)) + edgepairs_((33,_34),_(36,_37))
 + edgepairs_((33,_34),_(37,_38)) + edgepairs_((33,_34),_(37,_39))
 + edgepairs_((33,_34),_(39,_40)) + edgepairs_((33,_34),_(42,_44))
 + edgepairs_((33,_34),_(44,_45)) + edgepairs_((33,_34),_(45,_46))
 + edgepairs_((33,_34),_(46,_47)) + edgepairs_((33,_34),_(47,_48))
 + edgepairs_((33,_34),_(48,_49)) + edgepairs_((33,_34),_(49,_50))
 + edgepairs_((33,_34),_(5,_6)) + edgepairs_((33,_34),_(50,_51))
 + edgepairs_((33,_34),_(51,_52)) + edgepairs_((33,_34),_(52,_53))
 + edgepairs_((33,_34),_(53,_54)) + edgepairs_((33,_34),_(6,_7))
 + edgepairs_((33,_34),_(7,_8)) + edgepairs_((33,_34),_(8,_9))
 + edgepairs_((33,_34),_(9,_10)) + edgepairs_((33,_34),__1) = 1
_C1450: edgepairs_((21,_22),_(42,_44)) + edgepairs_((22,_23),_(42,_44))
 - nodepairs_(22,_42) - nodepairs_(22,_44) <= 0
_C1451: edgepairs_((21,_22),_(44,_45)) + edgepairs_((22,_23),_(44,_45))
 - nodepairs_(22,_44) - nodepairs_(22,_45) <= 0
_C1452: edgepairs_((21,_22),_(45,_46)) + edgepairs_((22,_23),_(45,_46))
 - nodepairs_(22,_45) - nodepairs_(22,_46) <= 0
_C1453: edgepairs_((21,_22),_(46,_47)) + edgepairs_((22,_23),_(46,_47))
 - nodepairs_(22,_46) - nodepairs_(22,_47) <= 0
_C1454: edgepairs_((21,_22),_(47,_48)) + edgepairs_((22,_23),_(47,_48))
 - nodepairs_(22,_47) - nodepairs_(22,_48) <= 0
_C1455: edgepairs_((21,_22),_(48,_49)) + edgepairs_((22,_23),_(48,_49))
 - nodepairs_(22,_48) - nodepairs_(22,_49) <= 0
_C1456: edgepairs_((21,_22),_(49,_50)) + edgepairs_((22,_23),_(49,_50))
 - nodepairs_(22,_49) - nodepairs_(22,_50) <= 0
_C1457: edgepairs_((21,_22),_(50,_51)) + edgepairs_((22,_23),_(50,_51))
 - nodepairs_(22,_50) - nodepairs_(22,_51) <= 0
_C1458: edgepairs_((21,_22),_(51,_52)) + edgepairs_((22,_23),_(51,_52))
 - nodepairs_(22,_51) - nodepairs_(22,_52) <= 0
_C1459: edgepairs_((21,_22),_(52,_53)) + edgepairs_((22,_23),_(52,_53))
 - nodepairs_(22,_52) - nodepairs_(22,_53) <= 0
_C146: edgepairs_((34,_35),_(0,_1)) + edgepairs_((34,_35),_(0,_17))
 + edgepairs_((34,_35),_(10,_11)) + edgepairs_((34,_35),_(11,_12))
 + edgepairs_((34,_35),_(12,_13)) + edgepairs_((34,_35),_(13,_14))
 + edgepairs_((34,_35),_(14,_15)) + edgepairs_((34,_35),_(15,_16))
 + edgepairs_((34,_35),_(19,_21)) + edgepairs_((34,_35),_(21,_22))
 + edgepairs_((34,_35),_(22,_23)) + edgepairs_((34,_35),_(23,_24))
 + edgepairs_((34,_35),_(24,_25)) + edgepairs_((34,_35),_(25,_26))
 + edgepairs_((34,_35),_(26,_27)) + edgepairs_((34,_35),_(27,_28))
 + edgepairs_((34,_35),_(28,_29)) + edgepairs_((34,_35),_(29,_30))
 + edgepairs_((34,_35),_(3,_5)) + edgepairs_((34,_35),_(30,_31))
 + edgepairs_((34,_35),_(31,_32)) + edgepairs_((34,_35),_(32,_33))
 + edgepairs_((34,_35),_(33,_34)) + edgepairs_((34,_35),_(34,_35))
 + edgepairs_((34,_35),_(35,_36)) + edgepairs_((34,_35),_(36,_37))
 + edgepairs_((34,_35),_(37,_38)) + edgepairs_((34,_35),_(37,_39))
 + edgepairs_((34,_35),_(39,_40)) + edgepairs_((34,_35),_(42,_44))
 + edgepairs_((34,_35),_(44,_45)) + edgepairs_((34,_35),_(45,_46))
 + edgepairs_((34,_35),_(46,_47)) + edgepairs_((34,_35),_(47,_48))
 + edgepairs_((34,_35),_(48,_49)) + edgepairs_((34,_35),_(49,_50))
 + edgepairs_((34,_35),_(5,_6)) + edgepairs_((34,_35),_(50,_51))
 + edgepairs_((34,_35),_(51,_52)) + edgepairs_((34,_35),_(52,_53))
 + edgepairs_((34,_35),_(53,_54)) + edgepairs_((34,_35),_(6,_7))
 + edgepairs_((34,_35),_(7,_8)) + edgepairs_((34,_35),_(8,_9))
 + edgepairs_((34,_35),_(9,_10)) + edgepairs_((34,_35),__1) = 1
_C1460: edgepairs_((21,_22),_(53,_54)) + edgepairs_((22,_23),_(53,_54))
 - nodepairs_(22,_53) - nodepairs_(22,_54) <= 0
_C1461: edgepairs_((22,_23),_(0,_1)) + edgepairs_((23,_24),_(0,_1))
 + edgepairs_((23,_25),_(0,_1)) - nodepairs_(23,_0) - nodepairs_(23,_1) <= 0
_C1462: edgepairs_((22,_23),_(0,_17)) + edgepairs_((23,_24),_(0,_17))
 + edgepairs_((23,_25),_(0,_17)) - nodepairs_(23,_0) - nodepairs_(23,_17) <= 0
_C1463: - nodepairs_(23,_0) <= 0
_C1464: - nodepairs_(23,_1) <= 0
_C1465: - nodepairs_(23,_3) <= 0
_C1466: - nodepairs_(23,_3) <= 0
_C1467: edgepairs_((22,_23),_(3,_5)) + edgepairs_((23,_24),_(3,_5))
 + edgepairs_((23,_25),_(3,_5)) - nodepairs_(23,_3) - nodepairs_(23,_5) <= 0
_C1468: edgepairs_((22,_23),_(5,_6)) + edgepairs_((23,_24),_(5,_6))
 + edgepairs_((23,_25),_(5,_6)) - nodepairs_(23,_5) - nodepairs_(23,_6) <= 0
_C1469: edgepairs_((22,_23),_(6,_7)) + edgepairs_((23,_24),_(6,_7))
 + edgepairs_((23,_25),_(6,_7)) - nodepairs_(23,_6) - nodepairs_(23,_7) <= 0
_C147: edgepairs_((35,_36),_(0,_1)) + edgepairs_((35,_36),_(0,_17))
 + edgepairs_((35,_36),_(10,_11)) + edgepairs_((35,_36),_(11,_12))
 + edgepairs_((35,_36),_(12,_13)) + edgepairs_((35,_36),_(13,_14))
 + edgepairs_((35,_36),_(14,_15)) + edgepairs_((35,_36),_(15,_16))
 + edgepairs_((35,_36),_(19,_21)) + edgepairs_((35,_36),_(21,_22))
 + edgepairs_((35,_36),_(22,_23)) + edgepairs_((35,_36),_(23,_24))
 + edgepairs_((35,_36),_(24,_25)) + edgepairs_((35,_36),_(25,_26))
 + edgepairs_((35,_36),_(26,_27)) + edgepairs_((35,_36),_(27,_28))
 + edgepairs_((35,_36),_(28,_29)) + edgepairs_((35,_36),_(29,_30))
 + edgepairs_((35,_36),_(3,_5)) + edgepairs_((35,_36),_(30,_31))
 + edgepairs_((35,_36),_(31,_32)) + edgepairs_((35,_36),_(32,_33))
 + edgepairs_((35,_36),_(33,_34)) + edgepairs_((35,_36),_(34,_35))
 + edgepairs_((35,_36),_(35,_36)) + edgepairs_((35,_36),_(36,_37))
 + edgepairs_((35,_36),_(37,_38)) + edgepairs_((35,_36),_(37,_39))
 + edgepairs_((35,_36),_(39,_40)) + edgepairs_((35,_36),_(42,_44))
 + edgepairs_((35,_36),_(44,_45)) + edgepairs_((35,_36),_(45,_46))
 + edgepairs_((35,_36),_(46,_47)) + edgepairs_((35,_36),_(47,_48))
 + edgepairs_((35,_36),_(48,_49)) + edgepairs_((35,_36),_(49,_50))
 + edgepairs_((35,_36),_(5,_6)) + edgepairs_((35,_36),_(50,_51))
 + edgepairs_((35,_36),_(51,_52)) + edgepairs_((35,_36),_(52,_53))
 + edgepairs_((35,_36),_(53,_54)) + edgepairs_((35,_36),_(6,_7))
 + edgepairs_((35,_36),_(7,_8)) + edgepairs_((35,_36),_(8,_9))
 + edgepairs_((35,_36),_(9,_10)) + edgepairs_((35,_36),__1) = 1
_C1470: edgepairs_((22,_23),_(7,_8)) + edgepairs_((23,_24),_(7,_8))
 + edgepairs_((23,_25),_(7,_8)) - nodepairs_(23,_7) - nodepairs_(23,_8) <= 0
_C1471: edgepairs_((22,_23),_(8,_9)) + edgepairs_((23,_24),_(8,_9))
 + edgepairs_((23,_25),_(8,_9)) - nodepairs_(23,_8) - nodepairs_(23,_9) <= 0
_C1472: edgepairs_((22,_23),_(9,_10)) + edgepairs_((23,_24),_(9,_10))
 + edgepairs_((23,_25),_(9,_10)) - nodepairs_(23,_10) - nodepairs_(23,_9) <= 0
_C1473: edgepairs_((22,_23),_(10,_11)) + edgepairs_((23,_24),_(10,_11))
 + edgepairs_((23,_25),_(10,_11)) - nodepairs_(23,_10) - nodepairs_(23,_11)
 <= 0
_C1474: edgepairs_((22,_23),_(11,_12)) + edgepairs_((23,_24),_(11,_12))
 + edgepairs_((23,_25),_(11,_12)) - nodepairs_(23,_11) - nodepairs_(23,_12)
 <= 0
_C1475: edgepairs_((22,_23),_(12,_13)) + edgepairs_((23,_24),_(12,_13))
 + edgepairs_((23,_25),_(12,_13)) - nodepairs_(23,_12) - nodepairs_(23,_13)
 <= 0
_C1476: edgepairs_((22,_23),_(13,_14)) + edgepairs_((23,_24),_(13,_14))
 + edgepairs_((23,_25),_(13,_14)) - nodepairs_(23,_13) - nodepairs_(23,_14)
 <= 0
_C1477: edgepairs_((22,_23),_(14,_15)) + edgepairs_((23,_24),_(14,_15))
 + edgepairs_((23,_25),_(14,_15)) - nodepairs_(23,_14) - nodepairs_(23,_15)
 <= 0
_C1478: edgepairs_((22,_23),_(15,_16)) + edgepairs_((23,_24),_(15,_16))
 + edgepairs_((23,_25),_(15,_16)) - nodepairs_(23,_15) - nodepairs_(23,_16)
 <= 0
_C1479: - nodepairs_(23,_17) <= 0
_C148: edgepairs_((36,_37),_(0,_1)) + edgepairs_((36,_37),_(0,_17))
 + edgepairs_((36,_37),_(10,_11)) + edgepairs_((36,_37),_(11,_12))
 + edgepairs_((36,_37),_(12,_13)) + edgepairs_((36,_37),_(13,_14))
 + edgepairs_((36,_37),_(14,_15)) + edgepairs_((36,_37),_(15,_16))
 + edgepairs_((36,_37),_(19,_21)) + edgepairs_((36,_37),_(21,_22))
 + edgepairs_((36,_37),_(22,_23)) + edgepairs_((36,_37),_(23,_24))
 + edgepairs_((36,_37),_(24,_25)) + edgepairs_((36,_37),_(25,_26))
 + edgepairs_((36,_37),_(26,_27)) + edgepairs_((36,_37),_(27,_28))
 + edgepairs_((36,_37),_(28,_29)) + edgepairs_((36,_37),_(29,_30))
 + edgepairs_((36,_37),_(3,_5)) + edgepairs_((36,_37),_(30,_31))
 + edgepairs_((36,_37),_(31,_32)) + edgepairs_((36,_37),_(32,_33))
 + edgepairs_((36,_37),_(33,_34)) + edgepairs_((36,_37),_(34,_35))
 + edgepairs_((36,_37),_(35,_36)) + edgepairs_((36,_37),_(36,_37))
 + edgepairs_((36,_37),_(37,_38)) + edgepairs_((36,_37),_(37,_39))
 + edgepairs_((36,_37),_(39,_40)) + edgepairs_((36,_37),_(42,_44))
 + edgepairs_((36,_37),_(44,_45)) + edgepairs_((36,_37),_(45,_46))
 + edgepairs_((36,_37),_(46,_47)) + edgepairs_((36,_37),_(47,_48))
 + edgepairs_((36,_37),_(48,_49)) + edgepairs_((36,_37),_(49,_50))
 + edgepairs_((36,_37),_(5,_6)) + edgepairs_((36,_37),_(50,_51))
 + edgepairs_((36,_37),_(51,_52)) + edgepairs_((36,_37),_(52,_53))
 + edgepairs_((36,_37),_(53,_54)) + edgepairs_((36,_37),_(6,_7))
 + edgepairs_((36,_37),_(7,_8)) + edgepairs_((36,_37),_(8,_9))
 + edgepairs_((36,_37),_(9,_10)) + edgepairs_((36,_37),__1) = 1
_C1480: - nodepairs_(23,_19) <= 0
_C1481: - nodepairs_(23,_19) <= 0
_C1482: edgepairs_((22,_23),_(19,_21)) + edgepairs_((23,_24),_(19,_21))
 + edgepairs_((23,_25),_(19,_21)) - nodepairs_(23,_19) - nodepairs_(23,_21)
 <= 0
_C1483: edgepairs_((22,_23),_(21,_22)) + edgepairs_((23,_24),_(21,_22))
 + edgepairs_((23,_25),_(21,_22)) - nodepairs_(23,_21) - nodepairs_(23,_22)
 <= 0
_C1484: edgepairs_((22,_23),_(22,_23)) + edgepairs_((23,_24),_(22,_23))
 + edgepairs_((23,_25),_(22,_23)) - nodepairs_(23,_22) - nodepairs_(23,_23)
 <= 0
_C1485: edgepairs_((22,_23),_(23,_24)) + edgepairs_((23,_24),_(23,_24))
 + edgepairs_((23,_25),_(23,_24)) - nodepairs_(23,_23) - nodepairs_(23,_24)
 <= 0
_C1486: edgepairs_((22,_23),_(24,_25)) + edgepairs_((23,_24),_(24,_25))
 + edgepairs_((23,_25),_(24,_25)) - nodepairs_(23,_24) - nodepairs_(23,_25)
 <= 0
_C1487: edgepairs_((22,_23),_(25,_26)) + edgepairs_((23,_24),_(25,_26))
 + edgepairs_((23,_25),_(25,_26)) - nodepairs_(23,_25) - nodepairs_(23,_26)
 <= 0
_C1488: edgepairs_((22,_23),_(26,_27)) + edgepairs_((23,_24),_(26,_27))
 + edgepairs_((23,_25),_(26,_27)) - nodepairs_(23,_26) - nodepairs_(23,_27)
 <= 0
_C1489: edgepairs_((22,_23),_(27,_28)) + edgepairs_((23,_24),_(27,_28))
 + edgepairs_((23,_25),_(27,_28)) - nodepairs_(23,_27) - nodepairs_(23,_28)
 <= 0
_C149: edgepairs_((37,_38),_(0,_1)) + edgepairs_((37,_38),_(0,_17))
 + edgepairs_((37,_38),_(10,_11)) + edgepairs_((37,_38),_(11,_12))
 + edgepairs_((37,_38),_(12,_13)) + edgepairs_((37,_38),_(13,_14))
 + edgepairs_((37,_38),_(14,_15)) + edgepairs_((37,_38),_(15,_16))
 + edgepairs_((37,_38),_(19,_21)) + edgepairs_((37,_38),_(21,_22))
 + edgepairs_((37,_38),_(22,_23)) + edgepairs_((37,_38),_(23,_24))
 + edgepairs_((37,_38),_(24,_25)) + edgepairs_((37,_38),_(25,_26))
 + edgepairs_((37,_38),_(26,_27)) + edgepairs_((37,_38),_(27,_28))
 + edgepairs_((37,_38),_(28,_29)) + edgepairs_((37,_38),_(29,_30))
 + edgepairs_((37,_38),_(3,_5)) + edgepairs_((37,_38),_(30,_31))
 + edgepairs_((37,_38),_(31,_32)) + edgepairs_((37,_38),_(32,_33))
 + edgepairs_((37,_38),_(33,_34)) + edgepairs_((37,_38),_(34,_35))
 + edgepairs_((37,_38),_(35,_36)) + edgepairs_((37,_38),_(36,_37))
 + edgepairs_((37,_38),_(37,_38)) + edgepairs_((37,_38),_(37,_39))
 + edgepairs_((37,_38),_(39,_40)) + edgepairs_((37,_38),_(42,_44))
 + edgepairs_((37,_38),_(44,_45)) + edgepairs_((37,_38),_(45,_46))
 + edgepairs_((37,_38),_(46,_47)) + edgepairs_((37,_38),_(47,_48))
 + edgepairs_((37,_38),_(48,_49)) + edgepairs_((37,_38),_(49,_50))
 + edgepairs_((37,_38),_(5,_6)) + edgepairs_((37,_38),_(50,_51))
 + edgepairs_((37,_38),_(51,_52)) + edgepairs_((37,_38),_(52,_53))
 + edgepairs_((37,_38),_(53,_54)) + edgepairs_((37,_38),_(6,_7))
 + edgepairs_((37,_38),_(7,_8)) + edgepairs_((37,_38),_(8,_9))
 + edgepairs_((37,_38),_(9,_10)) + edgepairs_((37,_38),__1) = 1
_C1490: edgepairs_((22,_23),_(28,_29)) + edgepairs_((23,_24),_(28,_29))
 + edgepairs_((23,_25),_(28,_29)) - nodepairs_(23,_28) - nodepairs_(23,_29)
 <= 0
_C1491: edgepairs_((22,_23),_(29,_30)) + edgepairs_((23,_24),_(29,_30))
 + edgepairs_((23,_25),_(29,_30)) - nodepairs_(23,_29) - nodepairs_(23,_30)
 <= 0
_C1492: edgepairs_((22,_23),_(30,_31)) + edgepairs_((23,_24),_(30,_31))
 + edgepairs_((23,_25),_(30,_31)) - nodepairs_(23,_30) - nodepairs_(23,_31)
 <= 0
_C1493: edgepairs_((22,_23),_(31,_32)) + edgepairs_((23,_24),_(31,_32))
 + edgepairs_((23,_25),_(31,_32)) - nodepairs_(23,_31) - nodepairs_(23,_32)
 <= 0
_C1494: edgepairs_((22,_23),_(32,_33)) + edgepairs_((23,_24),_(32,_33))
 + edgepairs_((23,_25),_(32,_33)) - nodepairs_(23,_32) - nodepairs_(23,_33)
 <= 0
_C1495: edgepairs_((22,_23),_(33,_34)) + edgepairs_((23,_24),_(33,_34))
 + edgepairs_((23,_25),_(33,_34)) - nodepairs_(23,_33) - nodepairs_(23,_34)
 <= 0
_C1496: edgepairs_((22,_23),_(34,_35)) + edgepairs_((23,_24),_(34,_35))
 + edgepairs_((23,_25),_(34,_35)) - nodepairs_(23,_34) - nodepairs_(23,_35)
 <= 0
_C1497: edgepairs_((22,_23),_(35,_36)) + edgepairs_((23,_24),_(35,_36))
 + edgepairs_((23,_25),_(35,_36)) - nodepairs_(23,_35) - nodepairs_(23,_36)
 <= 0
_C1498: edgepairs_((22,_23),_(36,_37)) + edgepairs_((23,_24),_(36,_37))
 + edgepairs_((23,_25),_(36,_37)) - nodepairs_(23,_36) - nodepairs_(23,_37)
 <= 0
_C1499: edgepairs_((22,_23),_(37,_38)) + edgepairs_((23,_24),_(37,_38))
 + edgepairs_((23,_25),_(37,_38)) - nodepairs_(23,_37) - nodepairs_(23,_38)
 <= 0
_C15: nodepairs_(14,_0) + nodepairs_(14,_1) + nodepairs_(14,_10)
 + nodepairs_(14,_11) + nodepairs_(14,_12) + nodepairs_(14,_13)
 + nodepairs_(14,_14) + nodepairs_(14,_15) + nodepairs_(14,_16)
 + nodepairs_(14,_17) + nodepairs_(14,_19) + nodepairs_(14,_21)
 + nodepairs_(14,_22) + nodepairs_(14,_23) + nodepairs_(14,_24)
 + nodepairs_(14,_25) + nodepairs_(14,_26) + nodepairs_(14,_27)
 + nodepairs_(14,_28) + nodepairs_(14,_29) + nodepairs_(14,_3)
 + nodepairs_(14,_30) + nodepairs_(14,_31) + nodepairs_(14,_32)
 + nodepairs_(14,_33) + nodepairs_(14,_34) + nodepairs_(14,_35)
 + nodepairs_(14,_36) + nodepairs_(14,_37) + nodepairs_(14,_38)
 + nodepairs_(14,_39) + nodepairs_(14,_40) + nodepairs_(14,_42)
 + nodepairs_(14,_44) + nodepairs_(14,_45) + nodepairs_(14,_46)
 + nodepairs_(14,_47) + nodepairs_(14,_48) + nodepairs_(14,_49)
 + nodepairs_(14,_5) + nodepairs_(14,_50) + nodepairs_(14,_51)
 + nodepairs_(14,_52) + nodepairs_(14,_53) + nodepairs_(14,_54)
 + nodepairs_(14,_6) + nodepairs_(14,_7) + nodepairs_(14,_8)
 + nodepairs_(14,_9) <= 1
_C150: edgepairs_((38,_39),_(0,_1)) + edgepairs_((38,_39),_(0,_17))
 + edgepairs_((38,_39),_(10,_11)) + edgepairs_((38,_39),_(11,_12))
 + edgepairs_((38,_39),_(12,_13)) + edgepairs_((38,_39),_(13,_14))
 + edgepairs_((38,_39),_(14,_15)) + edgepairs_((38,_39),_(15,_16))
 + edgepairs_((38,_39),_(19,_21)) + edgepairs_((38,_39),_(21,_22))
 + edgepairs_((38,_39),_(22,_23)) + edgepairs_((38,_39),_(23,_24))
 + edgepairs_((38,_39),_(24,_25)) + edgepairs_((38,_39),_(25,_26))
 + edgepairs_((38,_39),_(26,_27)) + edgepairs_((38,_39),_(27,_28))
 + edgepairs_((38,_39),_(28,_29)) + edgepairs_((38,_39),_(29,_30))
 + edgepairs_((38,_39),_(3,_5)) + edgepairs_((38,_39),_(30,_31))
 + edgepairs_((38,_39),_(31,_32)) + edgepairs_((38,_39),_(32,_33))
 + edgepairs_((38,_39),_(33,_34)) + edgepairs_((38,_39),_(34,_35))
 + edgepairs_((38,_39),_(35,_36)) + edgepairs_((38,_39),_(36,_37))
 + edgepairs_((38,_39),_(37,_38)) + edgepairs_((38,_39),_(37,_39))
 + edgepairs_((38,_39),_(39,_40)) + edgepairs_((38,_39),_(42,_44))
 + edgepairs_((38,_39),_(44,_45)) + edgepairs_((38,_39),_(45,_46))
 + edgepairs_((38,_39),_(46,_47)) + edgepairs_((38,_39),_(47,_48))
 + edgepairs_((38,_39),_(48,_49)) + edgepairs_((38,_39),_(49,_50))
 + edgepairs_((38,_39),_(5,_6)) + edgepairs_((38,_39),_(50,_51))
 + edgepairs_((38,_39),_(51,_52)) + edgepairs_((38,_39),_(52,_53))
 + edgepairs_((38,_39),_(53,_54)) + edgepairs_((38,_39),_(6,_7))
 + edgepairs_((38,_39),_(7,_8)) + edgepairs_((38,_39),_(8,_9))
 + edgepairs_((38,_39),_(9,_10)) + edgepairs_((38,_39),__1) = 1
_C1500: edgepairs_((22,_23),_(37,_39)) + edgepairs_((23,_24),_(37,_39))
 + edgepairs_((23,_25),_(37,_39)) - nodepairs_(23,_37) - nodepairs_(23,_39)
 <= 0
_C1501: edgepairs_((22,_23),_(39,_40)) + edgepairs_((23,_24),_(39,_40))
 + edgepairs_((23,_25),_(39,_40)) - nodepairs_(23,_39) - nodepairs_(23,_40)
 <= 0
_C1502: - nodepairs_(23,_42) <= 0
_C1503: - nodepairs_(23,_42) <= 0
_C1504: edgepairs_((22,_23),_(42,_44)) + edgepairs_((23,_24),_(42,_44))
 + edgepairs_((23,_25),_(42,_44)) - nodepairs_(23,_42) - nodepairs_(23,_44)
 <= 0
_C1505: edgepairs_((22,_23),_(44,_45)) + edgepairs_((23,_24),_(44,_45))
 + edgepairs_((23,_25),_(44,_45)) - nodepairs_(23,_44) - nodepairs_(23,_45)
 <= 0
_C1506: edgepairs_((22,_23),_(45,_46)) + edgepairs_((23,_24),_(45,_46))
 + edgepairs_((23,_25),_(45,_46)) - nodepairs_(23,_45) - nodepairs_(23,_46)
 <= 0
_C1507: edgepairs_((22,_23),_(46,_47)) + edgepairs_((23,_24),_(46,_47))
 + edgepairs_((23,_25),_(46,_47)) - nodepairs_(23,_46) - nodepairs_(23,_47)
 <= 0
_C1508: edgepairs_((22,_23),_(47,_48)) + edgepairs_((23,_24),_(47,_48))
 + edgepairs_((23,_25),_(47,_48)) - nodepairs_(23,_47) - nodepairs_(23,_48)
 <= 0
_C1509: edgepairs_((22,_23),_(48,_49)) + edgepairs_((23,_24),_(48,_49))
 + edgepairs_((23,_25),_(48,_49)) - nodepairs_(23,_48) - nodepairs_(23,_49)
 <= 0
_C151: edgepairs_((39,_40),_(0,_1)) + edgepairs_((39,_40),_(0,_17))
 + edgepairs_((39,_40),_(10,_11)) + edgepairs_((39,_40),_(11,_12))
 + edgepairs_((39,_40),_(12,_13)) + edgepairs_((39,_40),_(13,_14))
 + edgepairs_((39,_40),_(14,_15)) + edgepairs_((39,_40),_(15,_16))
 + edgepairs_((39,_40),_(19,_21)) + edgepairs_((39,_40),_(21,_22))
 + edgepairs_((39,_40),_(22,_23)) + edgepairs_((39,_40),_(23,_24))
 + edgepairs_((39,_40),_(24,_25)) + edgepairs_((39,_40),_(25,_26))
 + edgepairs_((39,_40),_(26,_27)) + edgepairs_((39,_40),_(27,_28))
 + edgepairs_((39,_40),_(28,_29)) + edgepairs_((39,_40),_(29,_30))
 + edgepairs_((39,_40),_(3,_5)) + edgepairs_((39,_40),_(30,_31))
 + edgepairs_((39,_40),_(31,_32)) + edgepairs_((39,_40),_(32,_33))
 + edgepairs_((39,_40),_(33,_34)) + edgepairs_((39,_40),_(34,_35))
 + edgepairs_((39,_40),_(35,_36)) + edgepairs_((39,_40),_(36,_37))
 + edgepairs_((39,_40),_(37,_38)) + edgepairs_((39,_40),_(37,_39))
 + edgepairs_((39,_40),_(39,_40)) + edgepairs_((39,_40),_(42,_44))
 + edgepairs_((39,_40),_(44,_45)) + edgepairs_((39,_40),_(45,_46))
 + edgepairs_((39,_40),_(46,_47)) + edgepairs_((39,_40),_(47,_48))
 + edgepairs_((39,_40),_(48,_49)) + edgepairs_((39,_40),_(49,_50))
 + edgepairs_((39,_40),_(5,_6)) + edgepairs_((39,_40),_(50,_51))
 + edgepairs_((39,_40),_(51,_52)) + edgepairs_((39,_40),_(52,_53))
 + edgepairs_((39,_40),_(53,_54)) + edgepairs_((39,_40),_(6,_7))
 + edgepairs_((39,_40),_(7,_8)) + edgepairs_((39,_40),_(8,_9))
 + edgepairs_((39,_40),_(9,_10)) + edgepairs_((39,_40),__1) = 1
_C1510: edgepairs_((22,_23),_(49,_50)) + edgepairs_((23,_24),_(49,_50))
 + edgepairs_((23,_25),_(49,_50)) - nodepairs_(23,_49) - nodepairs_(23,_50)
 <= 0
_C1511: edgepairs_((22,_23),_(50,_51)) + edgepairs_((23,_24),_(50,_51))
 + edgepairs_((23,_25),_(50,_51)) - nodepairs_(23,_50) - nodepairs_(23,_51)
 <= 0
_C1512: edgepairs_((22,_23),_(51,_52)) + edgepairs_((23,_24),_(51,_52))
 + edgepairs_((23,_25),_(51,_52)) - nodepairs_(23,_51) - nodepairs_(23,_52)
 <= 0
_C1513: edgepairs_((22,_23),_(52,_53)) + edgepairs_((23,_24),_(52,_53))
 + edgepairs_((23,_25),_(52,_53)) - nodepairs_(23,_52) - nodepairs_(23,_53)
 <= 0
_C1514: edgepairs_((22,_23),_(53,_54)) + edgepairs_((23,_24),_(53,_54))
 + edgepairs_((23,_25),_(53,_54)) - nodepairs_(23,_53) - nodepairs_(23,_54)
 <= 0
_C1515: edgepairs_((23,_24),_(0,_1)) - nodepairs_(24,_0) - nodepairs_(24,_1)
 <= 0
_C1516: edgepairs_((23,_24),_(0,_17)) - nodepairs_(24,_0) - nodepairs_(24,_17)
 <= 0
_C1517: - nodepairs_(24,_0) <= 0
_C1518: - nodepairs_(24,_1) <= 0
_C1519: - nodepairs_(24,_3) <= 0
_C152: edgepairs_((40,_41),_(0,_1)) + edgepairs_((40,_41),_(0,_17))
 + edgepairs_((40,_41),_(10,_11)) + edgepairs_((40,_41),_(11,_12))
 + edgepairs_((40,_41),_(12,_13)) + edgepairs_((40,_41),_(13,_14))
 + edgepairs_((40,_41),_(14,_15)) + edgepairs_((40,_41),_(15,_16))
 + edgepairs_((40,_41),_(19,_21)) + edgepairs_((40,_41),_(21,_22))
 + edgepairs_((40,_41),_(22,_23)) + edgepairs_((40,_41),_(23,_24))
 + edgepairs_((40,_41),_(24,_25)) + edgepairs_((40,_41),_(25,_26))
 + edgepairs_((40,_41),_(26,_27)) + edgepairs_((40,_41),_(27,_28))
 + edgepairs_((40,_41),_(28,_29)) + edgepairs_((40,_41),_(29,_30))
 + edgepairs_((40,_41),_(3,_5)) + edgepairs_((40,_41),_(30,_31))
 + edgepairs_((40,_41),_(31,_32)) + edgepairs_((40,_41),_(32,_33))
 + edgepairs_((40,_41),_(33,_34)) + edgepairs_((40,_41),_(34,_35))
 + edgepairs_((40,_41),_(35,_36)) + edgepairs_((40,_41),_(36,_37))
 + edgepairs_((40,_41),_(37,_38)) + edgepairs_((40,_41),_(37,_39))
 + edgepairs_((40,_41),_(39,_40)) + edgepairs_((40,_41),_(42,_44))
 + edgepairs_((40,_41),_(44,_45)) + edgepairs_((40,_41),_(45,_46))
 + edgepairs_((40,_41),_(46,_47)) + edgepairs_((40,_41),_(47,_48))
 + edgepairs_((40,_41),_(48,_49)) + edgepairs_((40,_41),_(49,_50))
 + edgepairs_((40,_41),_(5,_6)) + edgepairs_((40,_41),_(50,_51))
 + edgepairs_((40,_41),_(51,_52)) + edgepairs_((40,_41),_(52,_53))
 + edgepairs_((40,_41),_(53,_54)) + edgepairs_((40,_41),_(6,_7))
 + edgepairs_((40,_41),_(7,_8)) + edgepairs_((40,_41),_(8,_9))
 + edgepairs_((40,_41),_(9,_10)) + edgepairs_((40,_41),__1) = 1
_C1520: - nodepairs_(24,_3) <= 0
_C1521: edgepairs_((23,_24),_(3,_5)) - nodepairs_(24,_3) - nodepairs_(24,_5)
 <= 0
_C1522: edgepairs_((23,_24),_(5,_6)) - nodepairs_(24,_5) - nodepairs_(24,_6)
 <= 0
_C1523: edgepairs_((23,_24),_(6,_7)) - nodepairs_(24,_6) - nodepairs_(24,_7)
 <= 0
_C1524: edgepairs_((23,_24),_(7,_8)) - nodepairs_(24,_7) - nodepairs_(24,_8)
 <= 0
_C1525: edgepairs_((23,_24),_(8,_9)) - nodepairs_(24,_8) - nodepairs_(24,_9)
 <= 0
_C1526: edgepairs_((23,_24),_(9,_10)) - nodepairs_(24,_10) - nodepairs_(24,_9)
 <= 0
_C1527: edgepairs_((23,_24),_(10,_11)) - nodepairs_(24,_10)
 - nodepairs_(24,_11) <= 0
_C1528: edgepairs_((23,_24),_(11,_12)) - nodepairs_(24,_11)
 - nodepairs_(24,_12) <= 0
_C1529: edgepairs_((23,_24),_(12,_13)) - nodepairs_(24,_12)
 - nodepairs_(24,_13) <= 0
_C153: edgepairs_((40,_42),_(0,_1)) + edgepairs_((40,_42),_(0,_17))
 + edgepairs_((40,_42),_(10,_11)) + edgepairs_((40,_42),_(11,_12))
 + edgepairs_((40,_42),_(12,_13)) + edgepairs_((40,_42),_(13,_14))
 + edgepairs_((40,_42),_(14,_15)) + edgepairs_((40,_42),_(15,_16))
 + edgepairs_((40,_42),_(19,_21)) + edgepairs_((40,_42),_(21,_22))
 + edgepairs_((40,_42),_(22,_23)) + edgepairs_((40,_42),_(23,_24))
 + edgepairs_((40,_42),_(24,_25)) + edgepairs_((40,_42),_(25,_26))
 + edgepairs_((40,_42),_(26,_27)) + edgepairs_((40,_42),_(27,_28))
 + edgepairs_((40,_42),_(28,_29)) + edgepairs_((40,_42),_(29,_30))
 + edgepairs_((40,_42),_(3,_5)) + edgepairs_((40,_42),_(30,_31))
 + edgepairs_((40,_42),_(31,_32)) + edgepairs_((40,_42),_(32,_33))
 + edgepairs_((40,_42),_(33,_34)) + edgepairs_((40,_42),_(34,_35))
 + edgepairs_((40,_42),_(35,_36)) + edgepairs_((40,_42),_(36,_37))
 + edgepairs_((40,_42),_(37,_38)) + edgepairs_((40,_42),_(37,_39))
 + edgepairs_((40,_42),_(39,_40)) + edgepairs_((40,_42),_(42,_44))
 + edgepairs_((40,_42),_(44,_45)) + edgepairs_((40,_42),_(45,_46))
 + edgepairs_((40,_42),_(46,_47)) + edgepairs_((40,_42),_(47,_48))
 + edgepairs_((40,_42),_(48,_49)) + edgepairs_((40,_42),_(49,_50))
 + edgepairs_((40,_42),_(5,_6)) + edgepairs_((40,_42),_(50,_51))
 + edgepairs_((40,_42),_(51,_52)) + edgepairs_((40,_42),_(52,_53))
 + edgepairs_((40,_42),_(53,_54)) + edgepairs_((40,_42),_(6,_7))
 + edgepairs_((40,_42),_(7,_8)) + edgepairs_((40,_42),_(8,_9))
 + edgepairs_((40,_42),_(9,_10)) + edgepairs_((40,_42),__1) = 1
_C1530: edgepairs_((23,_24),_(13,_14)) - nodepairs_(24,_13)
 - nodepairs_(24,_14) <= 0
_C1531: edgepairs_((23,_24),_(14,_15)) - nodepairs_(24,_14)
 - nodepairs_(24,_15) <= 0
_C1532: edgepairs_((23,_24),_(15,_16)) - nodepairs_(24,_15)
 - nodepairs_(24,_16) <= 0
_C1533: - nodepairs_(24,_17) <= 0
_C1534: - nodepairs_(24,_19) <= 0
_C1535: - nodepairs_(24,_19) <= 0
_C1536: edgepairs_((23,_24),_(19,_21)) - nodepairs_(24,_19)
 - nodepairs_(24,_21) <= 0
_C1537: edgepairs_((23,_24),_(21,_22)) - nodepairs_(24,_21)
 - nodepairs_(24,_22) <= 0
_C1538: edgepairs_((23,_24),_(22,_23)) - nodepairs_(24,_22)
 - nodepairs_(24,_23) <= 0
_C1539: edgepairs_((23,_24),_(23,_24)) - nodepairs_(24,_23)
 - nodepairs_(24,_24) <= 0
_C154: edgepairs_((43,_44),_(0,_41)) + edgepairs_((43,_44),_(1,_2))
 + edgepairs_((43,_44),_(17,_18)) + edgepairs_((43,_44),_(18,_19))
 + edgepairs_((43,_44),_(19,_20)) + edgepairs_((43,_44),_(2,_3))
 + edgepairs_((43,_44),_(3,_4)) + edgepairs_((43,_44),_(41,_42))
 + edgepairs_((43,_44),_(42,_43)) + edgepairs_((43,_44),__1) = 1
_C1540: edgepairs_((23,_24),_(24,_25)) - nodepairs_(24,_24)
 - nodepairs_(24,_25) <= 0
_C1541: edgepairs_((23,_24),_(25,_26)) - nodepairs_(24,_25)
 - nodepairs_(24,_26) <= 0
_C1542: edgepairs_((23,_24),_(26,_27)) - nodepairs_(24,_26)
 - nodepairs_(24,_27) <= 0
_C1543: edgepairs_((23,_24),_(27,_28)) - nodepairs_(24,_27)
 - nodepairs_(24,_28) <= 0
_C1544: edgepairs_((23,_24),_(28,_29)) - nodepairs_(24,_28)
 - nodepairs_(24,_29) <= 0
_C1545: edgepairs_((23,_24),_(29,_30)) - nodepairs_(24,_29)
 - nodepairs_(24,_30) <= 0
_C1546: edgepairs_((23,_24),_(30,_31)) - nodepairs_(24,_30)
 - nodepairs_(24,_31) <= 0
_C1547: edgepairs_((23,_24),_(31,_32)) - nodepairs_(24,_31)
 - nodepairs_(24,_32) <= 0
_C1548: edgepairs_((23,_24),_(32,_33)) - nodepairs_(24,_32)
 - nodepairs_(24,_33) <= 0
_C1549: edgepairs_((23,_24),_(33,_34)) - nodepairs_(24,_33)
 - nodepairs_(24,_34) <= 0
_C155: edgepairs_((44,_45),_(0,_41)) + edgepairs_((44,_45),_(1,_2))
 + edgepairs_((44,_45),_(17,_18)) + edgepairs_((44,_45),_(18,_19))
 + edgepairs_((44,_45),_(19,_20)) + edgepairs_((44,_45),_(2,_3))
 + edgepairs_((44,_45),_(3,_4)) + edgepairs_((44,_45),_(41,_42))
 + edgepairs_((44,_45),_(42,_43)) + edgepairs_((44,_45),__1) = 1
_C1550: edgepairs_((23,_24),_(34,_35)) - nodepairs_(24,_34)
 - nodepairs_(24,_35) <= 0
_C1551: edgepairs_((23,_24),_(35,_36)) - nodepairs_(24,_35)
 - nodepairs_(24,_36) <= 0
_C1552: edgepairs_((23,_24),_(36,_37)) - nodepairs_(24,_36)
 - nodepairs_(24,_37) <= 0
_C1553: edgepairs_((23,_24),_(37,_38)) - nodepairs_(24,_37)
 - nodepairs_(24,_38) <= 0
_C1554: edgepairs_((23,_24),_(37,_39)) - nodepairs_(24,_37)
 - nodepairs_(24,_39) <= 0
_C1555: edgepairs_((23,_24),_(39,_40)) - nodepairs_(24,_39)
 - nodepairs_(24,_40) <= 0
_C1556: - nodepairs_(24,_42) <= 0
_C1557: - nodepairs_(24,_42) <= 0
_C1558: edgepairs_((23,_24),_(42,_44)) - nodepairs_(24,_42)
 - nodepairs_(24,_44) <= 0
_C1559: edgepairs_((23,_24),_(44,_45)) - nodepairs_(24,_44)
 - nodepairs_(24,_45) <= 0
_C156: edgepairs_((44,_46),_(0,_1)) + edgepairs_((44,_46),_(0,_17))
 + edgepairs_((44,_46),_(10,_11)) + edgepairs_((44,_46),_(11,_12))
 + edgepairs_((44,_46),_(12,_13)) + edgepairs_((44,_46),_(13,_14))
 + edgepairs_((44,_46),_(14,_15)) + edgepairs_((44,_46),_(15,_16))
 + edgepairs_((44,_46),_(19,_21)) + edgepairs_((44,_46),_(21,_22))
 + edgepairs_((44,_46),_(22,_23)) + edgepairs_((44,_46),_(23,_24))
 + edgepairs_((44,_46),_(24,_25)) + edgepairs_((44,_46),_(25,_26))
 + edgepairs_((44,_46),_(26,_27)) + edgepairs_((44,_46),_(27,_28))
 + edgepairs_((44,_46),_(28,_29)) + edgepairs_((44,_46),_(29,_30))
 + edgepairs_((44,_46),_(3,_5)) + edgepairs_((44,_46),_(30,_31))
 + edgepairs_((44,_46),_(31,_32)) + edgepairs_((44,_46),_(32,_33))
 + edgepairs_((44,_46),_(33,_34)) + edgepairs_((44,_46),_(34,_35))
 + edgepairs_((44,_46),_(35,_36)) + edgepairs_((44,_46),_(36,_37))
 + edgepairs_((44,_46),_(37,_38)) + edgepairs_((44,_46),_(37,_39))
 + edgepairs_((44,_46),_(39,_40)) + edgepairs_((44,_46),_(42,_44))
 + edgepairs_((44,_46),_(44,_45)) + edgepairs_((44,_46),_(45,_46))
 + edgepairs_((44,_46),_(46,_47)) + edgepairs_((44,_46),_(47,_48))
 + edgepairs_((44,_46),_(48,_49)) + edgepairs_((44,_46),_(49,_50))
 + edgepairs_((44,_46),_(5,_6)) + edgepairs_((44,_46),_(50,_51))
 + edgepairs_((44,_46),_(51,_52)) + edgepairs_((44,_46),_(52,_53))
 + edgepairs_((44,_46),_(53,_54)) + edgepairs_((44,_46),_(6,_7))
 + edgepairs_((44,_46),_(7,_8)) + edgepairs_((44,_46),_(8,_9))
 + edgepairs_((44,_46),_(9,_10)) + edgepairs_((44,_46),__1) = 1
_C1560: edgepairs_((23,_24),_(45,_46)) - nodepairs_(24,_45)
 - nodepairs_(24,_46) <= 0
_C1561: edgepairs_((23,_24),_(46,_47)) - nodepairs_(24,_46)
 - nodepairs_(24,_47) <= 0
_C1562: edgepairs_((23,_24),_(47,_48)) - nodepairs_(24,_47)
 - nodepairs_(24,_48) <= 0
_C1563: edgepairs_((23,_24),_(48,_49)) - nodepairs_(24,_48)
 - nodepairs_(24,_49) <= 0
_C1564: edgepairs_((23,_24),_(49,_50)) - nodepairs_(24,_49)
 - nodepairs_(24,_50) <= 0
_C1565: edgepairs_((23,_24),_(50,_51)) - nodepairs_(24,_50)
 - nodepairs_(24,_51) <= 0
_C1566: edgepairs_((23,_24),_(51,_52)) - nodepairs_(24,_51)
 - nodepairs_(24,_52) <= 0
_C1567: edgepairs_((23,_24),_(52,_53)) - nodepairs_(24,_52)
 - nodepairs_(24,_53) <= 0
_C1568: edgepairs_((23,_24),_(53,_54)) - nodepairs_(24,_53)
 - nodepairs_(24,_54) <= 0
_C1569: edgepairs_((23,_25),_(0,_1)) - nodepairs_(25,_0) - nodepairs_(25,_1)
 <= 0
_C157: edgepairs_((46,_47),_(0,_1)) + edgepairs_((46,_47),_(0,_17))
 + edgepairs_((46,_47),_(10,_11)) + edgepairs_((46,_47),_(11,_12))
 + edgepairs_((46,_47),_(12,_13)) + edgepairs_((46,_47),_(13,_14))
 + edgepairs_((46,_47),_(14,_15)) + edgepairs_((46,_47),_(15,_16))
 + edgepairs_((46,_47),_(19,_21)) + edgepairs_((46,_47),_(21,_22))
 + edgepairs_((46,_47),_(22,_23)) + edgepairs_((46,_47),_(23,_24))
 + edgepairs_((46,_47),_(24,_25)) + edgepairs_((46,_47),_(25,_26))
 + edgepairs_((46,_47),_(26,_27)) + edgepairs_((46,_47),_(27,_28))
 + edgepairs_((46,_47),_(28,_29)) + edgepairs_((46,_47),_(29,_30))
 + edgepairs_((46,_47),_(3,_5)) + edgepairs_((46,_47),_(30,_31))
 + edgepairs_((46,_47),_(31,_32)) + edgepairs_((46,_47),_(32,_33))
 + edgepairs_((46,_47),_(33,_34)) + edgepairs_((46,_47),_(34,_35))
 + edgepairs_((46,_47),_(35,_36)) + edgepairs_((46,_47),_(36,_37))
 + edgepairs_((46,_47),_(37,_38)) + edgepairs_((46,_47),_(37,_39))
 + edgepairs_((46,_47),_(39,_40)) + edgepairs_((46,_47),_(42,_44))
 + edgepairs_((46,_47),_(44,_45)) + edgepairs_((46,_47),_(45,_46))
 + edgepairs_((46,_47),_(46,_47)) + edgepairs_((46,_47),_(47,_48))
 + edgepairs_((46,_47),_(48,_49)) + edgepairs_((46,_47),_(49,_50))
 + edgepairs_((46,_47),_(5,_6)) + edgepairs_((46,_47),_(50,_51))
 + edgepairs_((46,_47),_(51,_52)) + edgepairs_((46,_47),_(52,_53))
 + edgepairs_((46,_47),_(53,_54)) + edgepairs_((46,_47),_(6,_7))
 + edgepairs_((46,_47),_(7,_8)) + edgepairs_((46,_47),_(8,_9))
 + edgepairs_((46,_47),_(9,_10)) + edgepairs_((46,_47),__1) = 1
_C1570: edgepairs_((23,_25),_(0,_17)) - nodepairs_(25,_0) - nodepairs_(25,_17)
 <= 0
_C1571: - nodepairs_(25,_0) <= 0
_C1572: - nodepairs_(25,_1) <= 0
_C1573: - nodepairs_(25,_3) <= 0
_C1574: - nodepairs_(25,_3) <= 0
_C1575: edgepairs_((23,_25),_(3,_5)) - nodepairs_(25,_3) - nodepairs_(25,_5)
 <= 0
_C1576: edgepairs_((23,_25),_(5,_6)) - nodepairs_(25,_5) - nodepairs_(25,_6)
 <= 0
_C1577: edgepairs_((23,_25),_(6,_7)) - nodepairs_(25,_6) - nodepairs_(25,_7)
 <= 0
_C1578: edgepairs_((23,_25),_(7,_8)) - nodepairs_(25,_7) - nodepairs_(25,_8)
 <= 0
_C1579: edgepairs_((23,_25),_(8,_9)) - nodepairs_(25,_8) - nodepairs_(25,_9)
 <= 0
_C158: edgepairs_((47,_48),_(0,_1)) + edgepairs_((47,_48),_(0,_17))
 + edgepairs_((47,_48),_(10,_11)) + edgepairs_((47,_48),_(11,_12))
 + edgepairs_((47,_48),_(12,_13)) + edgepairs_((47,_48),_(13,_14))
 + edgepairs_((47,_48),_(14,_15)) + edgepairs_((47,_48),_(15,_16))
 + edgepairs_((47,_48),_(19,_21)) + edgepairs_((47,_48),_(21,_22))
 + edgepairs_((47,_48),_(22,_23)) + edgepairs_((47,_48),_(23,_24))
 + edgepairs_((47,_48),_(24,_25)) + edgepairs_((47,_48),_(25,_26))
 + edgepairs_((47,_48),_(26,_27)) + edgepairs_((47,_48),_(27,_28))
 + edgepairs_((47,_48),_(28,_29)) + edgepairs_((47,_48),_(29,_30))
 + edgepairs_((47,_48),_(3,_5)) + edgepairs_((47,_48),_(30,_31))
 + edgepairs_((47,_48),_(31,_32)) + edgepairs_((47,_48),_(32,_33))
 + edgepairs_((47,_48),_(33,_34)) + edgepairs_((47,_48),_(34,_35))
 + edgepairs_((47,_48),_(35,_36)) + edgepairs_((47,_48),_(36,_37))
 + edgepairs_((47,_48),_(37,_38)) + edgepairs_((47,_48),_(37,_39))
 + edgepairs_((47,_48),_(39,_40)) + edgepairs_((47,_48),_(42,_44))
 + edgepairs_((47,_48),_(44,_45)) + edgepairs_((47,_48),_(45,_46))
 + edgepairs_((47,_48),_(46,_47)) + edgepairs_((47,_48),_(47,_48))
 + edgepairs_((47,_48),_(48,_49)) + edgepairs_((47,_48),_(49,_50))
 + edgepairs_((47,_48),_(5,_6)) + edgepairs_((47,_48),_(50,_51))
 + edgepairs_((47,_48),_(51,_52)) + edgepairs_((47,_48),_(52,_53))
 + edgepairs_((47,_48),_(53,_54)) + edgepairs_((47,_48),_(6,_7))
 + edgepairs_((47,_48),_(7,_8)) + edgepairs_((47,_48),_(8,_9))
 + edgepairs_((47,_48),_(9,_10)) + edgepairs_((47,_48),__1) = 1
_C1580: edgepairs_((23,_25),_(9,_10)) - nodepairs_(25,_10) - nodepairs_(25,_9)
 <= 0
_C1581: edgepairs_((23,_25),_(10,_11)) - nodepairs_(25,_10)
 - nodepairs_(25,_11) <= 0
_C1582: edgepairs_((23,_25),_(11,_12)) - nodepairs_(25,_11)
 - nodepairs_(25,_12) <= 0
_C1583: edgepairs_((23,_25),_(12,_13)) - nodepairs_(25,_12)
 - nodepairs_(25,_13) <= 0
_C1584: edgepairs_((23,_25),_(13,_14)) - nodepairs_(25,_13)
 - nodepairs_(25,_14) <= 0
_C1585: edgepairs_((23,_25),_(14,_15)) - nodepairs_(25,_14)
 - nodepairs_(25,_15) <= 0
_C1586: edgepairs_((23,_25),_(15,_16)) - nodepairs_(25,_15)
 - nodepairs_(25,_16) <= 0
_C1587: - nodepairs_(25,_17) <= 0
_C1588: - nodepairs_(25,_19) <= 0
_C1589: - nodepairs_(25,_19) <= 0
_C159: edgepairs_((48,_49),_(0,_1)) + edgepairs_((48,_49),_(0,_17))
 + edgepairs_((48,_49),_(10,_11)) + edgepairs_((48,_49),_(11,_12))
 + edgepairs_((48,_49),_(12,_13)) + edgepairs_((48,_49),_(13,_14))
 + edgepairs_((48,_49),_(14,_15)) + edgepairs_((48,_49),_(15,_16))
 + edgepairs_((48,_49),_(19,_21)) + edgepairs_((48,_49),_(21,_22))
 + edgepairs_((48,_49),_(22,_23)) + edgepairs_((48,_49),_(23,_24))
 + edgepairs_((48,_49),_(24,_25)) + edgepairs_((48,_49),_(25,_26))
 + edgepairs_((48,_49),_(26,_27)) + edgepairs_((48,_49),_(27,_28))
 + edgepairs_((48,_49),_(28,_29)) + edgepairs_((48,_49),_(29,_30))
 + edgepairs_((48,_49),_(3,_5)) + edgepairs_((48,_49),_(30,_31))
 + edgepairs_((48,_49),_(31,_32)) + edgepairs_((48,_49),_(32,_33))
 + edgepairs_((48,_49),_(33,_34)) + edgepairs_((48,_49),_(34,_35))
 + edgepairs_((48,_49),_(35,_36)) + edgepairs_((48,_49),_(36,_37))
 + edgepairs_((48,_49),_(37,_38)) + edgepairs_((48,_49),_(37,_39))
 + edgepairs_((48,_49),_(39,_40)) + edgepairs_((48,_49),_(42,_44))
 + edgepairs_((48,_49),_(44,_45)) + edgepairs_((48,_49),_(45,_46))
 + edgepairs_((48,_49),_(46,_47)) + edgepairs_((48,_49),_(47,_48))
 + edgepairs_((48,_49),_(48,_49)) + edgepairs_((48,_49),_(49,_50))
 + edgepairs_((48,_49),_(5,_6)) + edgepairs_((48,_49),_(50,_51))
 + edgepairs_((48,_49),_(51,_52)) + edgepairs_((48,_49),_(52,_53))
 + edgepairs_((48,_49),_(53,_54)) + edgepairs_((48,_49),_(6,_7))
 + edgepairs_((48,_49),_(7,_8)) + edgepairs_((48,_49),_(8,_9))
 + edgepairs_((48,_49),_(9,_10)) + edgepairs_((48,_49),__1) = 1
_C1590: edgepairs_((23,_25),_(19,_21)) - nodepairs_(25,_19)
 - nodepairs_(25,_21) <= 0
_C1591: edgepairs_((23,_25),_(21,_22)) - nodepairs_(25,_21)
 - nodepairs_(25,_22) <= 0
_C1592: edgepairs_((23,_25),_(22,_23)) - nodepairs_(25,_22)
 - nodepairs_(25,_23) <= 0
_C1593: edgepairs_((23,_25),_(23,_24)) - nodepairs_(25,_23)
 - nodepairs_(25,_24) <= 0
_C1594: edgepairs_((23,_25),_(24,_25)) - nodepairs_(25,_24)
 - nodepairs_(25,_25) <= 0
_C1595: edgepairs_((23,_25),_(25,_26)) - nodepairs_(25,_25)
 - nodepairs_(25,_26) <= 0
_C1596: edgepairs_((23,_25),_(26,_27)) - nodepairs_(25,_26)
 - nodepairs_(25,_27) <= 0
_C1597: edgepairs_((23,_25),_(27,_28)) - nodepairs_(25,_27)
 - nodepairs_(25,_28) <= 0
_C1598: edgepairs_((23,_25),_(28,_29)) - nodepairs_(25,_28)
 - nodepairs_(25,_29) <= 0
_C1599: edgepairs_((23,_25),_(29,_30)) - nodepairs_(25,_29)
 - nodepairs_(25,_30) <= 0
_C16: nodepairs_(15,_0) + nodepairs_(15,_1) + nodepairs_(15,_10)
 + nodepairs_(15,_11) + nodepairs_(15,_12) + nodepairs_(15,_13)
 + nodepairs_(15,_14) + nodepairs_(15,_15) + nodepairs_(15,_16)
 + nodepairs_(15,_17) + nodepairs_(15,_19) + nodepairs_(15,_21)
 + nodepairs_(15,_22) + nodepairs_(15,_23) + nodepairs_(15,_24)
 + nodepairs_(15,_25) + nodepairs_(15,_26) + nodepairs_(15,_27)
 + nodepairs_(15,_28) + nodepairs_(15,_29) + nodepairs_(15,_3)
 + nodepairs_(15,_30) + nodepairs_(15,_31) + nodepairs_(15,_32)
 + nodepairs_(15,_33) + nodepairs_(15,_34) + nodepairs_(15,_35)
 + nodepairs_(15,_36) + nodepairs_(15,_37) + nodepairs_(15,_38)
 + nodepairs_(15,_39) + nodepairs_(15,_40) + nodepairs_(15,_42)
 + nodepairs_(15,_44) + nodepairs_(15,_45) + nodepairs_(15,_46)
 + nodepairs_(15,_47) + nodepairs_(15,_48) + nodepairs_(15,_49)
 + nodepairs_(15,_5) + nodepairs_(15,_50) + nodepairs_(15,_51)
 + nodepairs_(15,_52) + nodepairs_(15,_53) + nodepairs_(15,_54)
 + nodepairs_(15,_6) + nodepairs_(15,_7) + nodepairs_(15,_8)
 + nodepairs_(15,_9) <= 1
_C160: edgepairs_((49,_50),_(0,_1)) + edgepairs_((49,_50),_(0,_17))
 + edgepairs_((49,_50),_(10,_11)) + edgepairs_((49,_50),_(11,_12))
 + edgepairs_((49,_50),_(12,_13)) + edgepairs_((49,_50),_(13,_14))
 + edgepairs_((49,_50),_(14,_15)) + edgepairs_((49,_50),_(15,_16))
 + edgepairs_((49,_50),_(19,_21)) + edgepairs_((49,_50),_(21,_22))
 + edgepairs_((49,_50),_(22,_23)) + edgepairs_((49,_50),_(23,_24))
 + edgepairs_((49,_50),_(24,_25)) + edgepairs_((49,_50),_(25,_26))
 + edgepairs_((49,_50),_(26,_27)) + edgepairs_((49,_50),_(27,_28))
 + edgepairs_((49,_50),_(28,_29)) + edgepairs_((49,_50),_(29,_30))
 + edgepairs_((49,_50),_(3,_5)) + edgepairs_((49,_50),_(30,_31))
 + edgepairs_((49,_50),_(31,_32)) + edgepairs_((49,_50),_(32,_33))
 + edgepairs_((49,_50),_(33,_34)) + edgepairs_((49,_50),_(34,_35))
 + edgepairs_((49,_50),_(35,_36)) + edgepairs_((49,_50),_(36,_37))
 + edgepairs_((49,_50),_(37,_38)) + edgepairs_((49,_50),_(37,_39))
 + edgepairs_((49,_50),_(39,_40)) + edgepairs_((49,_50),_(42,_44))
 + edgepairs_((49,_50),_(44,_45)) + edgepairs_((49,_50),_(45,_46))
 + edgepairs_((49,_50),_(46,_47)) + edgepairs_((49,_50),_(47,_48))
 + edgepairs_((49,_50),_(48,_49)) + edgepairs_((49,_50),_(49,_50))
 + edgepairs_((49,_50),_(5,_6)) + edgepairs_((49,_50),_(50,_51))
 + edgepairs_((49,_50),_(51,_52)) + edgepairs_((49,_50),_(52,_53))
 + edgepairs_((49,_50),_(53,_54)) + edgepairs_((49,_50),_(6,_7))
 + edgepairs_((49,_50),_(7,_8)) + edgepairs_((49,_50),_(8,_9))
 + edgepairs_((49,_50),_(9,_10)) + edgepairs_((49,_50),__1) = 1
_C1600: edgepairs_((23,_25),_(30,_31)) - nodepairs_(25,_30)
 - nodepairs_(25,_31) <= 0
_C1601: edgepairs_((23,_25),_(31,_32)) - nodepairs_(25,_31)
 - nodepairs_(25,_32) <= 0
_C1602: edgepairs_((23,_25),_(32,_33)) - nodepairs_(25,_32)
 - nodepairs_(25,_33) <= 0
_C1603: edgepairs_((23,_25),_(33,_34)) - nodepairs_(25,_33)
 - nodepairs_(25,_34) <= 0
_C1604: edgepairs_((23,_25),_(34,_35)) - nodepairs_(25,_34)
 - nodepairs_(25,_35) <= 0
_C1605: edgepairs_((23,_25),_(35,_36)) - nodepairs_(25,_35)
 - nodepairs_(25,_36) <= 0
_C1606: edgepairs_((23,_25),_(36,_37)) - nodepairs_(25,_36)
 - nodepairs_(25,_37) <= 0
_C1607: edgepairs_((23,_25),_(37,_38)) - nodepairs_(25,_37)
 - nodepairs_(25,_38) <= 0
_C1608: edgepairs_((23,_25),_(37,_39)) - nodepairs_(25,_37)
 - nodepairs_(25,_39) <= 0
_C1609: edgepairs_((23,_25),_(39,_40)) - nodepairs_(25,_39)
 - nodepairs_(25,_40) <= 0
_C161: edgepairs_((50,_51),_(0,_1)) + edgepairs_((50,_51),_(0,_17))
 + edgepairs_((50,_51),_(10,_11)) + edgepairs_((50,_51),_(11,_12))
 + edgepairs_((50,_51),_(12,_13)) + edgepairs_((50,_51),_(13,_14))
 + edgepairs_((50,_51),_(14,_15)) + edgepairs_((50,_51),_(15,_16))
 + edgepairs_((50,_51),_(19,_21)) + edgepairs_((50,_51),_(21,_22))
 + edgepairs_((50,_51),_(22,_23)) + edgepairs_((50,_51),_(23,_24))
 + edgepairs_((50,_51),_(24,_25)) + edgepairs_((50,_51),_(25,_26))
 + edgepairs_((50,_51),_(26,_27)) + edgepairs_((50,_51),_(27,_28))
 + edgepairs_((50,_51),_(28,_29)) + edgepairs_((50,_51),_(29,_30))
 + edgepairs_((50,_51),_(3,_5)) + edgepairs_((50,_51),_(30,_31))
 + edgepairs_((50,_51),_(31,_32)) + edgepairs_((50,_51),_(32,_33))
 + edgepairs_((50,_51),_(33,_34)) + edgepairs_((50,_51),_(34,_35))
 + edgepairs_((50,_51),_(35,_36)) + edgepairs_((50,_51),_(36,_37))
 + edgepairs_((50,_51),_(37,_38)) + edgepairs_((50,_51),_(37,_39))
 + edgepairs_((50,_51),_(39,_40)) + edgepairs_((50,_51),_(42,_44))
 + edgepairs_((50,_51),_(44,_45)) + edgepairs_((50,_51),_(45,_46))
 + edgepairs_((50,_51),_(46,_47)) + edgepairs_((50,_51),_(47,_48))
 + edgepairs_((50,_51),_(48,_49)) + edgepairs_((50,_51),_(49,_50))
 + edgepairs_((50,_51),_(5,_6)) + edgepairs_((50,_51),_(50,_51))
 + edgepairs_((50,_51),_(51,_52)) + edgepairs_((50,_51),_(52,_53))
 + edgepairs_((50,_51),_(53,_54)) + edgepairs_((50,_51),_(6,_7))
 + edgepairs_((50,_51),_(7,_8)) + edgepairs_((50,_51),_(8,_9))
 + edgepairs_((50,_51),_(9,_10)) + edgepairs_((50,_51),__1) = 1
_C1610: - nodepairs_(25,_42) <= 0
_C1611: - nodepairs_(25,_42) <= 0
_C1612: edgepairs_((23,_25),_(42,_44)) - nodepairs_(25,_42)
 - nodepairs_(25,_44) <= 0
_C1613: edgepairs_((23,_25),_(44,_45)) - nodepairs_(25,_44)
 - nodepairs_(25,_45) <= 0
_C1614: edgepairs_((23,_25),_(45,_46)) - nodepairs_(25,_45)
 - nodepairs_(25,_46) <= 0
_C1615: edgepairs_((23,_25),_(46,_47)) - nodepairs_(25,_46)
 - nodepairs_(25,_47) <= 0
_C1616: edgepairs_((23,_25),_(47,_48)) - nodepairs_(25,_47)
 - nodepairs_(25,_48) <= 0
_C1617: edgepairs_((23,_25),_(48,_49)) - nodepairs_(25,_48)
 - nodepairs_(25,_49) <= 0
_C1618: edgepairs_((23,_25),_(49,_50)) - nodepairs_(25,_49)
 - nodepairs_(25,_50) <= 0
_C1619: edgepairs_((23,_25),_(50,_51)) - nodepairs_(25,_50)
 - nodepairs_(25,_51) <= 0
_C162: edgepairs_((51,_52),_(0,_1)) + edgepairs_((51,_52),_(0,_17))
 + edgepairs_((51,_52),_(10,_11)) + edgepairs_((51,_52),_(11,_12))
 + edgepairs_((51,_52),_(12,_13)) + edgepairs_((51,_52),_(13,_14))
 + edgepairs_((51,_52),_(14,_15)) + edgepairs_((51,_52),_(15,_16))
 + edgepairs_((51,_52),_(19,_21)) + edgepairs_((51,_52),_(21,_22))
 + edgepairs_((51,_52),_(22,_23)) + edgepairs_((51,_52),_(23,_24))
 + edgepairs_((51,_52),_(24,_25)) + edgepairs_((51,_52),_(25,_26))
 + edgepairs_((51,_52),_(26,_27)) + edgepairs_((51,_52),_(27,_28))
 + edgepairs_((51,_52),_(28,_29)) + edgepairs_((51,_52),_(29,_30))
 + edgepairs_((51,_52),_(3,_5)) + edgepairs_((51,_52),_(30,_31))
 + edgepairs_((51,_52),_(31,_32)) + edgepairs_((51,_52),_(32,_33))
 + edgepairs_((51,_52),_(33,_34)) + edgepairs_((51,_52),_(34,_35))
 + edgepairs_((51,_52),_(35,_36)) + edgepairs_((51,_52),_(36,_37))
 + edgepairs_((51,_52),_(37,_38)) + edgepairs_((51,_52),_(37,_39))
 + edgepairs_((51,_52),_(39,_40)) + edgepairs_((51,_52),_(42,_44))
 + edgepairs_((51,_52),_(44,_45)) + edgepairs_((51,_52),_(45,_46))
 + edgepairs_((51,_52),_(46,_47)) + edgepairs_((51,_52),_(47,_48))
 + edgepairs_((51,_52),_(48,_49)) + edgepairs_((51,_52),_(49,_50))
 + edgepairs_((51,_52),_(5,_6)) + edgepairs_((51,_52),_(50,_51))
 + edgepairs_((51,_52),_(51,_52)) + edgepairs_((51,_52),_(52,_53))
 + edgepairs_((51,_52),_(53,_54)) + edgepairs_((51,_52),_(6,_7))
 + edgepairs_((51,_52),_(7,_8)) + edgepairs_((51,_52),_(8,_9))
 + edgepairs_((51,_52),_(9,_10)) + edgepairs_((51,_52),__1) = 1
_C1620: edgepairs_((23,_25),_(51,_52)) - nodepairs_(25,_51)
 - nodepairs_(25,_52) <= 0
_C1621: edgepairs_((23,_25),_(52,_53)) - nodepairs_(25,_52)
 - nodepairs_(25,_53) <= 0
_C1622: edgepairs_((23,_25),_(53,_54)) - nodepairs_(25,_53)
 - nodepairs_(25,_54) <= 0
_C1623: edgepairs_((0,_26),_(0,_1)) - nodepairs_(26,_0) - nodepairs_(26,_1)
 <= 0
_C1624: edgepairs_((0,_26),_(0,_17)) - nodepairs_(26,_0) - nodepairs_(26,_17)
 <= 0
_C1625: edgepairs_((26,_27),_(0,_41)) - nodepairs_(26,_0) <= 0
_C1626: edgepairs_((26,_27),_(1,_2)) - nodepairs_(26,_1) <= 0
_C1627: edgepairs_((26,_27),_(2,_3)) - nodepairs_(26,_3) <= 0
_C1628: edgepairs_((26,_27),_(3,_4)) - nodepairs_(26,_3) <= 0
_C1629: edgepairs_((0,_26),_(3,_5)) - nodepairs_(26,_3) - nodepairs_(26,_5)
 <= 0
_C163: edgepairs_((52,_53),_(0,_1)) + edgepairs_((52,_53),_(0,_17))
 + edgepairs_((52,_53),_(10,_11)) + edgepairs_((52,_53),_(11,_12))
 + edgepairs_((52,_53),_(12,_13)) + edgepairs_((52,_53),_(13,_14))
 + edgepairs_((52,_53),_(14,_15)) + edgepairs_((52,_53),_(15,_16))
 + edgepairs_((52,_53),_(19,_21)) + edgepairs_((52,_53),_(21,_22))
 + edgepairs_((52,_53),_(22,_23)) + edgepairs_((52,_53),_(23,_24))
 + edgepairs_((52,_53),_(24,_25)) + edgepairs_((52,_53),_(25,_26))
 + edgepairs_((52,_53),_(26,_27)) + edgepairs_((52,_53),_(27,_28))
 + edgepairs_((52,_53),_(28,_29)) + edgepairs_((52,_53),_(29,_30))
 + edgepairs_((52,_53),_(3,_5)) + edgepairs_((52,_53),_(30,_31))
 + edgepairs_((52,_53),_(31,_32)) + edgepairs_((52,_53),_(32,_33))
 + edgepairs_((52,_53),_(33,_34)) + edgepairs_((52,_53),_(34,_35))
 + edgepairs_((52,_53),_(35,_36)) + edgepairs_((52,_53),_(36,_37))
 + edgepairs_((52,_53),_(37,_38)) + edgepairs_((52,_53),_(37,_39))
 + edgepairs_((52,_53),_(39,_40)) + edgepairs_((52,_53),_(42,_44))
 + edgepairs_((52,_53),_(44,_45)) + edgepairs_((52,_53),_(45,_46))
 + edgepairs_((52,_53),_(46,_47)) + edgepairs_((52,_53),_(47,_48))
 + edgepairs_((52,_53),_(48,_49)) + edgepairs_((52,_53),_(49,_50))
 + edgepairs_((52,_53),_(5,_6)) + edgepairs_((52,_53),_(50,_51))
 + edgepairs_((52,_53),_(51,_52)) + edgepairs_((52,_53),_(52,_53))
 + edgepairs_((52,_53),_(53,_54)) + edgepairs_((52,_53),_(6,_7))
 + edgepairs_((52,_53),_(7,_8)) + edgepairs_((52,_53),_(8,_9))
 + edgepairs_((52,_53),_(9,_10)) + edgepairs_((52,_53),__1) = 1
_C1630: edgepairs_((0,_26),_(5,_6)) - nodepairs_(26,_5) - nodepairs_(26,_6)
 <= 0
_C1631: edgepairs_((0,_26),_(6,_7)) - nodepairs_(26,_6) - nodepairs_(26,_7)
 <= 0
_C1632: edgepairs_((0,_26),_(7,_8)) - nodepairs_(26,_7) - nodepairs_(26,_8)
 <= 0
_C1633: edgepairs_((0,_26),_(8,_9)) - nodepairs_(26,_8) - nodepairs_(26,_9)
 <= 0
_C1634: edgepairs_((0,_26),_(9,_10)) - nodepairs_(26,_10) - nodepairs_(26,_9)
 <= 0
_C1635: edgepairs_((0,_26),_(10,_11)) - nodepairs_(26,_10)
 - nodepairs_(26,_11) <= 0
_C1636: edgepairs_((0,_26),_(11,_12)) - nodepairs_(26,_11)
 - nodepairs_(26,_12) <= 0
_C1637: edgepairs_((0,_26),_(12,_13)) - nodepairs_(26,_12)
 - nodepairs_(26,_13) <= 0
_C1638: edgepairs_((0,_26),_(13,_14)) - nodepairs_(26,_13)
 - nodepairs_(26,_14) <= 0
_C1639: edgepairs_((0,_26),_(14,_15)) - nodepairs_(26,_14)
 - nodepairs_(26,_15) <= 0
_C164: edgepairs_((53,_54),_(0,_1)) + edgepairs_((53,_54),_(0,_17))
 + edgepairs_((53,_54),_(10,_11)) + edgepairs_((53,_54),_(11,_12))
 + edgepairs_((53,_54),_(12,_13)) + edgepairs_((53,_54),_(13,_14))
 + edgepairs_((53,_54),_(14,_15)) + edgepairs_((53,_54),_(15,_16))
 + edgepairs_((53,_54),_(19,_21)) + edgepairs_((53,_54),_(21,_22))
 + edgepairs_((53,_54),_(22,_23)) + edgepairs_((53,_54),_(23,_24))
 + edgepairs_((53,_54),_(24,_25)) + edgepairs_((53,_54),_(25,_26))
 + edgepairs_((53,_54),_(26,_27)) + edgepairs_((53,_54),_(27,_28))
 + edgepairs_((53,_54),_(28,_29)) + edgepairs_((53,_54),_(29,_30))
 + edgepairs_((53,_54),_(3,_5)) + edgepairs_((53,_54),_(30,_31))
 + edgepairs_((53,_54),_(31,_32)) + edgepairs_((53,_54),_(32,_33))
 + edgepairs_((53,_54),_(33,_34)) + edgepairs_((53,_54),_(34,_35))
 + edgepairs_((53,_54),_(35,_36)) + edgepairs_((53,_54),_(36,_37))
 + edgepairs_((53,_54),_(37,_38)) + edgepairs_((53,_54),_(37,_39))
 + edgepairs_((53,_54),_(39,_40)) + edgepairs_((53,_54),_(42,_44))
 + edgepairs_((53,_54),_(44,_45)) + edgepairs_((53,_54),_(45,_46))
 + edgepairs_((53,_54),_(46,_47)) + edgepairs_((53,_54),_(47,_48))
 + edgepairs_((53,_54),_(48,_49)) + edgepairs_((53,_54),_(49,_50))
 + edgepairs_((53,_54),_(5,_6)) + edgepairs_((53,_54),_(50,_51))
 + edgepairs_((53,_54),_(51,_52)) + edgepairs_((53,_54),_(52,_53))
 + edgepairs_((53,_54),_(53,_54)) + edgepairs_((53,_54),_(6,_7))
 + edgepairs_((53,_54),_(7,_8)) + edgepairs_((53,_54),_(8,_9))
 + edgepairs_((53,_54),_(9,_10)) + edgepairs_((53,_54),__1) = 1
_C1640: edgepairs_((0,_26),_(15,_16)) - nodepairs_(26,_15)
 - nodepairs_(26,_16) <= 0
_C1641: edgepairs_((26,_27),_(17,_18)) - nodepairs_(26,_17) <= 0
_C1642: edgepairs_((26,_27),_(18,_19)) - nodepairs_(26,_19) <= 0
_C1643: edgepairs_((26,_27),_(19,_20)) - nodepairs_(26,_19) <= 0
_C1644: edgepairs_((0,_26),_(19,_21)) - nodepairs_(26,_19)
 - nodepairs_(26,_21) <= 0
_C1645: edgepairs_((0,_26),_(21,_22)) - nodepairs_(26,_21)
 - nodepairs_(26,_22) <= 0
_C1646: edgepairs_((0,_26),_(22,_23)) - nodepairs_(26,_22)
 - nodepairs_(26,_23) <= 0
_C1647: edgepairs_((0,_26),_(23,_24)) - nodepairs_(26,_23)
 - nodepairs_(26,_24) <= 0
_C1648: edgepairs_((0,_26),_(24,_25)) - nodepairs_(26,_24)
 - nodepairs_(26,_25) <= 0
_C1649: edgepairs_((0,_26),_(25,_26)) - nodepairs_(26,_25)
 - nodepairs_(26,_26) <= 0
_C165: edgepairs_((0,_1),_(0,_1)) + edgepairs_((0,_26),_(0,_1))
 + edgepairs_((10,_11),_(0,_1)) + edgepairs_((11,_12),_(0,_1))
 + edgepairs_((12,_13),_(0,_1)) + edgepairs_((13,_14),_(0,_1))
 + edgepairs_((14,_15),_(0,_1)) + edgepairs_((15,_16),_(0,_1))
 + edgepairs_((16,_17),_(0,_1)) + edgepairs_((17,_18),_(0,_1))
 + edgepairs_((18,_19),_(0,_1)) + edgepairs_((19,_20),_(0,_1))
 + edgepairs_((20,_21),_(0,_1)) + edgepairs_((21,_22),_(0,_1))
 + edgepairs_((22,_23),_(0,_1)) + edgepairs_((23,_24),_(0,_1))
 + edgepairs_((23,_25),_(0,_1)) + edgepairs_((28,_30),_(0,_1))
 + edgepairs_((3,_5),_(0,_1)) + edgepairs_((30,_31),_(0,_1))
 + edgepairs_((31,_32),_(0,_1)) + edgepairs_((32,_33),_(0,_1))
 + edgepairs_((33,_34),_(0,_1)) + edgepairs_((34,_35),_(0,_1))
 + edgepairs_((35,_36),_(0,_1)) + edgepairs_((36,_37),_(0,_1))
 + edgepairs_((37,_38),_(0,_1)) + edgepairs_((38,_39),_(0,_1))
 + edgepairs_((39,_40),_(0,_1)) + edgepairs_((40,_41),_(0,_1))
 + edgepairs_((40,_42),_(0,_1)) + edgepairs_((44,_46),_(0,_1))
 + edgepairs_((46,_47),_(0,_1)) + edgepairs_((47,_48),_(0,_1))
 + edgepairs_((48,_49),_(0,_1)) + edgepairs_((49,_50),_(0,_1))
 + edgepairs_((5,_6),_(0,_1)) + edgepairs_((50,_51),_(0,_1))
 + edgepairs_((51,_52),_(0,_1)) + edgepairs_((52,_53),_(0,_1))
 + edgepairs_((53,_54),_(0,_1)) + edgepairs_((6,_7),_(0,_1))
 + edgepairs_((7,_8),_(0,_1)) + edgepairs_((8,_9),_(0,_1))
 + edgepairs_((9,_10),_(0,_1)) + edgepairs_(_1,_(0,_1)) = 1
_C1650: edgepairs_((0,_26),_(26,_27)) - nodepairs_(26,_26)
 - nodepairs_(26,_27) <= 0
_C1651: edgepairs_((0,_26),_(27,_28)) - nodepairs_(26,_27)
 - nodepairs_(26,_28) <= 0
_C1652: edgepairs_((0,_26),_(28,_29)) - nodepairs_(26,_28)
 - nodepairs_(26,_29) <= 0
_C1653: edgepairs_((0,_26),_(29,_30)) - nodepairs_(26,_29)
 - nodepairs_(26,_30) <= 0
_C1654: edgepairs_((0,_26),_(30,_31)) - nodepairs_(26,_30)
 - nodepairs_(26,_31) <= 0
_C1655: edgepairs_((0,_26),_(31,_32)) - nodepairs_(26,_31)
 - nodepairs_(26,_32) <= 0
_C1656: edgepairs_((0,_26),_(32,_33)) - nodepairs_(26,_32)
 - nodepairs_(26,_33) <= 0
_C1657: edgepairs_((0,_26),_(33,_34)) - nodepairs_(26,_33)
 - nodepairs_(26,_34) <= 0
_C1658: edgepairs_((0,_26),_(34,_35)) - nodepairs_(26,_34)
 - nodepairs_(26,_35) <= 0
_C1659: edgepairs_((0,_26),_(35,_36)) - nodepairs_(26,_35)
 - nodepairs_(26,_36) <= 0
_C166: edgepairs_((0,_1),_(0,_17)) + edgepairs_((0,_26),_(0,_17))
 + edgepairs_((10,_11),_(0,_17)) + edgepairs_((11,_12),_(0,_17))
 + edgepairs_((12,_13),_(0,_17)) + edgepairs_((13,_14),_(0,_17))
 + edgepairs_((14,_15),_(0,_17)) + edgepairs_((15,_16),_(0,_17))
 + edgepairs_((16,_17),_(0,_17)) + edgepairs_((17,_18),_(0,_17))
 + edgepairs_((18,_19),_(0,_17)) + edgepairs_((19,_20),_(0,_17))
 + edgepairs_((20,_21),_(0,_17)) + edgepairs_((21,_22),_(0,_17))
 + edgepairs_((22,_23),_(0,_17)) + edgepairs_((23,_24),_(0,_17))
 + edgepairs_((23,_25),_(0,_17)) + edgepairs_((28,_30),_(0,_17))
 + edgepairs_((3,_5),_(0,_17)) + edgepairs_((30,_31),_(0,_17))
 + edgepairs_((31,_32),_(0,_17)) + edgepairs_((32,_33),_(0,_17))
 + edgepairs_((33,_34),_(0,_17)) + edgepairs_((34,_35),_(0,_17))
 + edgepairs_((35,_36),_(0,_17)) + edgepairs_((36,_37),_(0,_17))
 + edgepairs_((37,_38),_(0,_17)) + edgepairs_((38,_39),_(0,_17))
 + edgepairs_((39,_40),_(0,_17)) + edgepairs_((40,_41),_(0,_17))
 + edgepairs_((40,_42),_(0,_17)) + edgepairs_((44,_46),_(0,_17))
 + edgepairs_((46,_47),_(0,_17)) + edgepairs_((47,_48),_(0,_17))
 + edgepairs_((48,_49),_(0,_17)) + edgepairs_((49,_50),_(0,_17))
 + edgepairs_((5,_6),_(0,_17)) + edgepairs_((50,_51),_(0,_17))
 + edgepairs_((51,_52),_(0,_17)) + edgepairs_((52,_53),_(0,_17))
 + edgepairs_((53,_54),_(0,_17)) + edgepairs_((6,_7),_(0,_17))
 + edgepairs_((7,_8),_(0,_17)) + edgepairs_((8,_9),_(0,_17))
 + edgepairs_((9,_10),_(0,_17)) + edgepairs_(_1,_(0,_17)) = 1
_C1660: edgepairs_((0,_26),_(36,_37)) - nodepairs_(26,_36)
 - nodepairs_(26,_37) <= 0
_C1661: edgepairs_((0,_26),_(37,_38)) - nodepairs_(26,_37)
 - nodepairs_(26,_38) <= 0
_C1662: edgepairs_((0,_26),_(37,_39)) - nodepairs_(26,_37)
 - nodepairs_(26,_39) <= 0
_C1663: edgepairs_((0,_26),_(39,_40)) - nodepairs_(26,_39)
 - nodepairs_(26,_40) <= 0
_C1664: edgepairs_((26,_27),_(41,_42)) - nodepairs_(26,_42) <= 0
_C1665: edgepairs_((26,_27),_(42,_43)) - nodepairs_(26,_42) <= 0
_C1666: edgepairs_((0,_26),_(42,_44)) - nodepairs_(26,_42)
 - nodepairs_(26,_44) <= 0
_C1667: edgepairs_((0,_26),_(44,_45)) - nodepairs_(26,_44)
 - nodepairs_(26,_45) <= 0
_C1668: edgepairs_((0,_26),_(45,_46)) - nodepairs_(26,_45)
 - nodepairs_(26,_46) <= 0
_C1669: edgepairs_((0,_26),_(46,_47)) - nodepairs_(26,_46)
 - nodepairs_(26,_47) <= 0
_C167: edgepairs_((0,_43),_(0,_41)) + edgepairs_((1,_2),_(0,_41))
 + edgepairs_((2,_3),_(0,_41)) + edgepairs_((26,_27),_(0,_41))
 + edgepairs_((27,_28),_(0,_41)) + edgepairs_((28,_29),_(0,_41))
 + edgepairs_((3,_4),_(0,_41)) + edgepairs_((43,_44),_(0,_41))
 + edgepairs_((44,_45),_(0,_41)) + edgepairs_(_1,_(0,_41)) = 1
_C1670: edgepairs_((0,_26),_(47,_48)) - nodepairs_(26,_47)
 - nodepairs_(26,_48) <= 0
_C1671: edgepairs_((0,_26),_(48,_49)) - nodepairs_(26,_48)
 - nodepairs_(26,_49) <= 0
_C1672: edgepairs_((0,_26),_(49,_50)) - nodepairs_(26,_49)
 - nodepairs_(26,_50) <= 0
_C1673: edgepairs_((0,_26),_(50,_51)) - nodepairs_(26,_50)
 - nodepairs_(26,_51) <= 0
_C1674: edgepairs_((0,_26),_(51,_52)) - nodepairs_(26,_51)
 - nodepairs_(26,_52) <= 0
_C1675: edgepairs_((0,_26),_(52,_53)) - nodepairs_(26,_52)
 - nodepairs_(26,_53) <= 0
_C1676: edgepairs_((0,_26),_(53,_54)) - nodepairs_(26,_53)
 - nodepairs_(26,_54) <= 0
_dummy: __dummy = 0
_C1677: __dummy <= 0
_C1678: __dummy <= 0
_C1679: edgepairs_((26,_27),_(0,_41)) + edgepairs_((27,_28),_(0,_41))
 - nodepairs_(27,_41) <= 0
_C168: edgepairs_((0,_43),_(1,_2)) + edgepairs_((1,_2),_(1,_2))
 + edgepairs_((2,_3),_(1,_2)) + edgepairs_((26,_27),_(1,_2))
 + edgepairs_((27,_28),_(1,_2)) + edgepairs_((28,_29),_(1,_2))
 + edgepairs_((3,_4),_(1,_2)) + edgepairs_((43,_44),_(1,_2))
 + edgepairs_((44,_45),_(1,_2)) + edgepairs_(_1,_(1,_2)) = 1
_C1680: edgepairs_((26,_27),_(1,_2)) + edgepairs_((27,_28),_(1,_2))
 - nodepairs_(27,_2) <= 0
_C1681: edgepairs_((26,_27),_(2,_3)) + edgepairs_((27,_28),_(2,_3))
 - nodepairs_(27,_2) <= 0
_C1682: edgepairs_((26,_27),_(3,_4)) + edgepairs_((27,_28),_(3,_4))
 - nodepairs_(27,_4) <= 0
_C1683: __dummy <= 0
_C1684: __dummy <= 0
_C1685: __dummy <= 0
_C1686: __dummy <= 0
_C1687: __dummy <= 0
_C1688: __dummy <= 0
_C1689: __dummy <= 0
_C169: edgepairs_((0,_43),_(2,_3)) + edgepairs_((1,_2),_(2,_3))
 + edgepairs_((2,_3),_(2,_3)) + edgepairs_((26,_27),_(2,_3))
 + edgepairs_((27,_28),_(2,_3)) + edgepairs_((28,_29),_(2,_3))
 + edgepairs_((3,_4),_(2,_3)) + edgepairs_((43,_44),_(2,_3))
 + edgepairs_((44,_45),_(2,_3)) + edgepairs_(_1,_(2,_3)) = 1
_C1690: __dummy <= 0
_C1691: __dummy <= 0
_C1692: __dummy <= 0
_C1693: __dummy <= 0
_C1694: __dummy <= 0
_C1695: edgepairs_((26,_27),_(17,_18)) + edgepairs_((27,_28),_(17,_18))
 - nodepairs_(27,_18) <= 0
_C1696: edgepairs_((26,_27),_(18,_19)) + edgepairs_((27,_28),_(18,_19))
 - nodepairs_(27,_18) <= 0
_C1697: edgepairs_((26,_27),_(19,_20)) + edgepairs_((27,_28),_(19,_20))
 - nodepairs_(27,_20) <= 0
_C1698: __dummy <= 0
_C1699: __dummy <= 0
_C17: nodepairs_(16,_0) + nodepairs_(16,_1) + nodepairs_(16,_10)
 + nodepairs_(16,_11) + nodepairs_(16,_12) + nodepairs_(16,_13)
 + nodepairs_(16,_14) + nodepairs_(16,_15) + nodepairs_(16,_16)
 + nodepairs_(16,_17) + nodepairs_(16,_19) + nodepairs_(16,_21)
 + nodepairs_(16,_22) + nodepairs_(16,_23) + nodepairs_(16,_24)
 + nodepairs_(16,_25) + nodepairs_(16,_26) + nodepairs_(16,_27)
 + nodepairs_(16,_28) + nodepairs_(16,_29) + nodepairs_(16,_3)
 + nodepairs_(16,_30) + nodepairs_(16,_31) + nodepairs_(16,_32)
 + nodepairs_(16,_33) + nodepairs_(16,_34) + nodepairs_(16,_35)
 + nodepairs_(16,_36) + nodepairs_(16,_37) + nodepairs_(16,_38)
 + nodepairs_(16,_39) + nodepairs_(16,_40) + nodepairs_(16,_42)
 + nodepairs_(16,_44) + nodepairs_(16,_45) + nodepairs_(16,_46)
 + nodepairs_(16,_47) + nodepairs_(16,_48) + nodepairs_(16,_49)
 + nodepairs_(16,_5) + nodepairs_(16,_50) + nodepairs_(16,_51)
 + nodepairs_(16,_52) + nodepairs_(16,_53) + nodepairs_(16,_54)
 + nodepairs_(16,_6) + nodepairs_(16,_7) + nodepairs_(16,_8)
 + nodepairs_(16,_9) <= 1
_C170: edgepairs_((0,_43),_(3,_4)) + edgepairs_((1,_2),_(3,_4))
 + edgepairs_((2,_3),_(3,_4)) + edgepairs_((26,_27),_(3,_4))
 + edgepairs_((27,_28),_(3,_4)) + edgepairs_((28,_29),_(3,_4))
 + edgepairs_((3,_4),_(3,_4)) + edgepairs_((43,_44),_(3,_4))
 + edgepairs_((44,_45),_(3,_4)) + edgepairs_(_1,_(3,_4)) = 1
_C1700: __dummy <= 0
_C1701: __dummy <= 0
_C1702: __dummy <= 0
_C1703: __dummy <= 0
_C1704: __dummy <= 0
_C1705: __dummy <= 0
_C1706: __dummy <= 0
_C1707: __dummy <= 0
_C1708: __dummy <= 0
_C1709: __dummy <= 0
_C171: edgepairs_((0,_1),_(3,_5)) + edgepairs_((0,_26),_(3,_5))
 + edgepairs_((10,_11),_(3,_5)) + edgepairs_((11,_12),_(3,_5))
 + edgepairs_((12,_13),_(3,_5)) + edgepairs_((13,_14),_(3,_5))
 + edgepairs_((14,_15),_(3,_5)) + edgepairs_((15,_16),_(3,_5))
 + edgepairs_((16,_17),_(3,_5)) + edgepairs_((17,_18),_(3,_5))
 + edgepairs_((18,_19),_(3,_5)) + edgepairs_((19,_20),_(3,_5))
 + edgepairs_((20,_21),_(3,_5)) + edgepairs_((21,_22),_(3,_5))
 + edgepairs_((22,_23),_(3,_5)) + edgepairs_((23,_24),_(3,_5))
 + edgepairs_((23,_25),_(3,_5)) + edgepairs_((28,_30),_(3,_5))
 + edgepairs_((3,_5),_(3,_5)) + edgepairs_((30,_31),_(3,_5))
 + edgepairs_((31,_32),_(3,_5)) + edgepairs_((32,_33),_(3,_5))
 + edgepairs_((33,_34),_(3,_5)) + edgepairs_((34,_35),_(3,_5))
 + edgepairs_((35,_36),_(3,_5)) + edgepairs_((36,_37),_(3,_5))
 + edgepairs_((37,_38),_(3,_5)) + edgepairs_((38,_39),_(3,_5))
 + edgepairs_((39,_40),_(3,_5)) + edgepairs_((40,_41),_(3,_5))
 + edgepairs_((40,_42),_(3,_5)) + edgepairs_((44,_46),_(3,_5))
 + edgepairs_((46,_47),_(3,_5)) + edgepairs_((47,_48),_(3,_5))
 + edgepairs_((48,_49),_(3,_5)) + edgepairs_((49,_50),_(3,_5))
 + edgepairs_((5,_6),_(3,_5)) + edgepairs_((50,_51),_(3,_5))
 + edgepairs_((51,_52),_(3,_5)) + edgepairs_((52,_53),_(3,_5))
 + edgepairs_((53,_54),_(3,_5)) + edgepairs_((6,_7),_(3,_5))
 + edgepairs_((7,_8),_(3,_5)) + edgepairs_((8,_9),_(3,_5))
 + edgepairs_((9,_10),_(3,_5)) + edgepairs_(_1,_(3,_5)) = 1
_C1710: __dummy <= 0
_C1711: __dummy <= 0
_C1712: __dummy <= 0
_C1713: __dummy <= 0
_C1714: __dummy <= 0
_C1715: __dummy <= 0
_C1716: __dummy <= 0
_C1717: __dummy <= 0
_C1718: edgepairs_((26,_27),_(41,_42)) + edgepairs_((27,_28),_(41,_42))
 - nodepairs_(27,_41) <= 0
_C1719: edgepairs_((26,_27),_(42,_43)) + edgepairs_((27,_28),_(42,_43))
 - nodepairs_(27,_43) <= 0
_C172: edgepairs_((0,_1),_(5,_6)) + edgepairs_((0,_26),_(5,_6))
 + edgepairs_((10,_11),_(5,_6)) + edgepairs_((11,_12),_(5,_6))
 + edgepairs_((12,_13),_(5,_6)) + edgepairs_((13,_14),_(5,_6))
 + edgepairs_((14,_15),_(5,_6)) + edgepairs_((15,_16),_(5,_6))
 + edgepairs_((16,_17),_(5,_6)) + edgepairs_((17,_18),_(5,_6))
 + edgepairs_((18,_19),_(5,_6)) + edgepairs_((19,_20),_(5,_6))
 + edgepairs_((20,_21),_(5,_6)) + edgepairs_((21,_22),_(5,_6))
 + edgepairs_((22,_23),_(5,_6)) + edgepairs_((23,_24),_(5,_6))
 + edgepairs_((23,_25),_(5,_6)) + edgepairs_((28,_30),_(5,_6))
 + edgepairs_((3,_5),_(5,_6)) + edgepairs_((30,_31),_(5,_6))
 + edgepairs_((31,_32),_(5,_6)) + edgepairs_((32,_33),_(5,_6))
 + edgepairs_((33,_34),_(5,_6)) + edgepairs_((34,_35),_(5,_6))
 + edgepairs_((35,_36),_(5,_6)) + edgepairs_((36,_37),_(5,_6))
 + edgepairs_((37,_38),_(5,_6)) + edgepairs_((38,_39),_(5,_6))
 + edgepairs_((39,_40),_(5,_6)) + edgepairs_((40,_41),_(5,_6))
 + edgepairs_((40,_42),_(5,_6)) + edgepairs_((44,_46),_(5,_6))
 + edgepairs_((46,_47),_(5,_6)) + edgepairs_((47,_48),_(5,_6))
 + edgepairs_((48,_49),_(5,_6)) + edgepairs_((49,_50),_(5,_6))
 + edgepairs_((5,_6),_(5,_6)) + edgepairs_((50,_51),_(5,_6))
 + edgepairs_((51,_52),_(5,_6)) + edgepairs_((52,_53),_(5,_6))
 + edgepairs_((53,_54),_(5,_6)) + edgepairs_((6,_7),_(5,_6))
 + edgepairs_((7,_8),_(5,_6)) + edgepairs_((8,_9),_(5,_6))
 + edgepairs_((9,_10),_(5,_6)) + edgepairs_(_1,_(5,_6)) = 1
_C1720: __dummy <= 0
_C1721: __dummy <= 0
_C1722: __dummy <= 0
_C1723: __dummy <= 0
_C1724: __dummy <= 0
_C1725: __dummy <= 0
_C1726: __dummy <= 0
_C1727: __dummy <= 0
_C1728: __dummy <= 0
_C1729: __dummy <= 0
_C173: edgepairs_((0,_1),_(6,_7)) + edgepairs_((0,_26),_(6,_7))
 + edgepairs_((10,_11),_(6,_7)) + edgepairs_((11,_12),_(6,_7))
 + edgepairs_((12,_13),_(6,_7)) + edgepairs_((13,_14),_(6,_7))
 + edgepairs_((14,_15),_(6,_7)) + edgepairs_((15,_16),_(6,_7))
 + edgepairs_((16,_17),_(6,_7)) + edgepairs_((17,_18),_(6,_7))
 + edgepairs_((18,_19),_(6,_7)) + edgepairs_((19,_20),_(6,_7))
 + edgepairs_((20,_21),_(6,_7)) + edgepairs_((21,_22),_(6,_7))
 + edgepairs_((22,_23),_(6,_7)) + edgepairs_((23,_24),_(6,_7))
 + edgepairs_((23,_25),_(6,_7)) + edgepairs_((28,_30),_(6,_7))
 + edgepairs_((3,_5),_(6,_7)) + edgepairs_((30,_31),_(6,_7))
 + edgepairs_((31,_32),_(6,_7)) + edgepairs_((32,_33),_(6,_7))
 + edgepairs_((33,_34),_(6,_7)) + edgepairs_((34,_35),_(6,_7))
 + edgepairs_((35,_36),_(6,_7)) + edgepairs_((36,_37),_(6,_7))
 + edgepairs_((37,_38),_(6,_7)) + edgepairs_((38,_39),_(6,_7))
 + edgepairs_((39,_40),_(6,_7)) + edgepairs_((40,_41),_(6,_7))
 + edgepairs_((40,_42),_(6,_7)) + edgepairs_((44,_46),_(6,_7))
 + edgepairs_((46,_47),_(6,_7)) + edgepairs_((47,_48),_(6,_7))
 + edgepairs_((48,_49),_(6,_7)) + edgepairs_((49,_50),_(6,_7))
 + edgepairs_((5,_6),_(6,_7)) + edgepairs_((50,_51),_(6,_7))
 + edgepairs_((51,_52),_(6,_7)) + edgepairs_((52,_53),_(6,_7))
 + edgepairs_((53,_54),_(6,_7)) + edgepairs_((6,_7),_(6,_7))
 + edgepairs_((7,_8),_(6,_7)) + edgepairs_((8,_9),_(6,_7))
 + edgepairs_((9,_10),_(6,_7)) + edgepairs_(_1,_(6,_7)) = 1
_C1730: __dummy <= 0
_C1731: edgepairs_((28,_30),_(0,_1)) - nodepairs_(28,_0) - nodepairs_(28,_1)
 <= 0
_C1732: edgepairs_((28,_30),_(0,_17)) - nodepairs_(28,_0) - nodepairs_(28,_17)
 <= 0
_C1733: edgepairs_((27,_28),_(0,_41)) + edgepairs_((28,_29),_(0,_41))
 - nodepairs_(28,_0) <= 0
_C1734: edgepairs_((27,_28),_(1,_2)) + edgepairs_((28,_29),_(1,_2))
 - nodepairs_(28,_1) <= 0
_C1735: edgepairs_((27,_28),_(2,_3)) + edgepairs_((28,_29),_(2,_3))
 - nodepairs_(28,_3) <= 0
_C1736: edgepairs_((27,_28),_(3,_4)) + edgepairs_((28,_29),_(3,_4))
 - nodepairs_(28,_3) <= 0
_C1737: edgepairs_((28,_30),_(3,_5)) - nodepairs_(28,_3) - nodepairs_(28,_5)
 <= 0
_C1738: edgepairs_((28,_30),_(5,_6)) - nodepairs_(28,_5) - nodepairs_(28,_6)
 <= 0
_C1739: edgepairs_((28,_30),_(6,_7)) - nodepairs_(28,_6) - nodepairs_(28,_7)
 <= 0
_C174: edgepairs_((0,_1),_(7,_8)) + edgepairs_((0,_26),_(7,_8))
 + edgepairs_((10,_11),_(7,_8)) + edgepairs_((11,_12),_(7,_8))
 + edgepairs_((12,_13),_(7,_8)) + edgepairs_((13,_14),_(7,_8))
 + edgepairs_((14,_15),_(7,_8)) + edgepairs_((15,_16),_(7,_8))
 + edgepairs_((16,_17),_(7,_8)) + edgepairs_((17,_18),_(7,_8))
 + edgepairs_((18,_19),_(7,_8)) + edgepairs_((19,_20),_(7,_8))
 + edgepairs_((20,_21),_(7,_8)) + edgepairs_((21,_22),_(7,_8))
 + edgepairs_((22,_23),_(7,_8)) + edgepairs_((23,_24),_(7,_8))
 + edgepairs_((23,_25),_(7,_8)) + edgepairs_((28,_30),_(7,_8))
 + edgepairs_((3,_5),_(7,_8)) + edgepairs_((30,_31),_(7,_8))
 + edgepairs_((31,_32),_(7,_8)) + edgepairs_((32,_33),_(7,_8))
 + edgepairs_((33,_34),_(7,_8)) + edgepairs_((34,_35),_(7,_8))
 + edgepairs_((35,_36),_(7,_8)) + edgepairs_((36,_37),_(7,_8))
 + edgepairs_((37,_38),_(7,_8)) + edgepairs_((38,_39),_(7,_8))
 + edgepairs_((39,_40),_(7,_8)) + edgepairs_((40,_41),_(7,_8))
 + edgepairs_((40,_42),_(7,_8)) + edgepairs_((44,_46),_(7,_8))
 + edgepairs_((46,_47),_(7,_8)) + edgepairs_((47,_48),_(7,_8))
 + edgepairs_((48,_49),_(7,_8)) + edgepairs_((49,_50),_(7,_8))
 + edgepairs_((5,_6),_(7,_8)) + edgepairs_((50,_51),_(7,_8))
 + edgepairs_((51,_52),_(7,_8)) + edgepairs_((52,_53),_(7,_8))
 + edgepairs_((53,_54),_(7,_8)) + edgepairs_((6,_7),_(7,_8))
 + edgepairs_((7,_8),_(7,_8)) + edgepairs_((8,_9),_(7,_8))
 + edgepairs_((9,_10),_(7,_8)) + edgepairs_(_1,_(7,_8)) = 1
_C1740: edgepairs_((28,_30),_(7,_8)) - nodepairs_(28,_7) - nodepairs_(28,_8)
 <= 0
_C1741: edgepairs_((28,_30),_(8,_9)) - nodepairs_(28,_8) - nodepairs_(28,_9)
 <= 0
_C1742: edgepairs_((28,_30),_(9,_10)) - nodepairs_(28,_10) - nodepairs_(28,_9)
 <= 0
_C1743: edgepairs_((28,_30),_(10,_11)) - nodepairs_(28,_10)
 - nodepairs_(28,_11) <= 0
_C1744: edgepairs_((28,_30),_(11,_12)) - nodepairs_(28,_11)
 - nodepairs_(28,_12) <= 0
_C1745: edgepairs_((28,_30),_(12,_13)) - nodepairs_(28,_12)
 - nodepairs_(28,_13) <= 0
_C1746: edgepairs_((28,_30),_(13,_14)) - nodepairs_(28,_13)
 - nodepairs_(28,_14) <= 0
_C1747: edgepairs_((28,_30),_(14,_15)) - nodepairs_(28,_14)
 - nodepairs_(28,_15) <= 0
_C1748: edgepairs_((28,_30),_(15,_16)) - nodepairs_(28,_15)
 - nodepairs_(28,_16) <= 0
_C1749: edgepairs_((27,_28),_(17,_18)) + edgepairs_((28,_29),_(17,_18))
 - nodepairs_(28,_17) <= 0
_C175: edgepairs_((0,_1),_(8,_9)) + edgepairs_((0,_26),_(8,_9))
 + edgepairs_((10,_11),_(8,_9)) + edgepairs_((11,_12),_(8,_9))
 + edgepairs_((12,_13),_(8,_9)) + edgepairs_((13,_14),_(8,_9))
 + edgepairs_((14,_15),_(8,_9)) + edgepairs_((15,_16),_(8,_9))
 + edgepairs_((16,_17),_(8,_9)) + edgepairs_((17,_18),_(8,_9))
 + edgepairs_((18,_19),_(8,_9)) + edgepairs_((19,_20),_(8,_9))
 + edgepairs_((20,_21),_(8,_9)) + edgepairs_((21,_22),_(8,_9))
 + edgepairs_((22,_23),_(8,_9)) + edgepairs_((23,_24),_(8,_9))
 + edgepairs_((23,_25),_(8,_9)) + edgepairs_((28,_30),_(8,_9))
 + edgepairs_((3,_5),_(8,_9)) + edgepairs_((30,_31),_(8,_9))
 + edgepairs_((31,_32),_(8,_9)) + edgepairs_((32,_33),_(8,_9))
 + edgepairs_((33,_34),_(8,_9)) + edgepairs_((34,_35),_(8,_9))
 + edgepairs_((35,_36),_(8,_9)) + edgepairs_((36,_37),_(8,_9))
 + edgepairs_((37,_38),_(8,_9)) + edgepairs_((38,_39),_(8,_9))
 + edgepairs_((39,_40),_(8,_9)) + edgepairs_((40,_41),_(8,_9))
 + edgepairs_((40,_42),_(8,_9)) + edgepairs_((44,_46),_(8,_9))
 + edgepairs_((46,_47),_(8,_9)) + edgepairs_((47,_48),_(8,_9))
 + edgepairs_((48,_49),_(8,_9)) + edgepairs_((49,_50),_(8,_9))
 + edgepairs_((5,_6),_(8,_9)) + edgepairs_((50,_51),_(8,_9))
 + edgepairs_((51,_52),_(8,_9)) + edgepairs_((52,_53),_(8,_9))
 + edgepairs_((53,_54),_(8,_9)) + edgepairs_((6,_7),_(8,_9))
 + edgepairs_((7,_8),_(8,_9)) + edgepairs_((8,_9),_(8,_9))
 + edgepairs_((9,_10),_(8,_9)) + edgepairs_(_1,_(8,_9)) = 1
_C1750: edgepairs_((27,_28),_(18,_19)) + edgepairs_((28,_29),_(18,_19))
 - nodepairs_(28,_19) <= 0
_C1751: edgepairs_((27,_28),_(19,_20)) + edgepairs_((28,_29),_(19,_20))
 - nodepairs_(28,_19) <= 0
_C1752: edgepairs_((28,_30),_(19,_21)) - nodepairs_(28,_19)
 - nodepairs_(28,_21) <= 0
_C1753: edgepairs_((28,_30),_(21,_22)) - nodepairs_(28,_21)
 - nodepairs_(28,_22) <= 0
_C1754: edgepairs_((28,_30),_(22,_23)) - nodepairs_(28,_22)
 - nodepairs_(28,_23) <= 0
_C1755: edgepairs_((28,_30),_(23,_24)) - nodepairs_(28,_23)
 - nodepairs_(28,_24) <= 0
_C1756: edgepairs_((28,_30),_(24,_25)) - nodepairs_(28,_24)
 - nodepairs_(28,_25) <= 0
_C1757: edgepairs_((28,_30),_(25,_26)) - nodepairs_(28,_25)
 - nodepairs_(28,_26) <= 0
_C1758: edgepairs_((28,_30),_(26,_27)) - nodepairs_(28,_26)
 - nodepairs_(28,_27) <= 0
_C1759: edgepairs_((28,_30),_(27,_28)) - nodepairs_(28,_27)
 - nodepairs_(28,_28) <= 0
_C176: edgepairs_((0,_1),_(9,_10)) + edgepairs_((0,_26),_(9,_10))
 + edgepairs_((10,_11),_(9,_10)) + edgepairs_((11,_12),_(9,_10))
 + edgepairs_((12,_13),_(9,_10)) + edgepairs_((13,_14),_(9,_10))
 + edgepairs_((14,_15),_(9,_10)) + edgepairs_((15,_16),_(9,_10))
 + edgepairs_((16,_17),_(9,_10)) + edgepairs_((17,_18),_(9,_10))
 + edgepairs_((18,_19),_(9,_10)) + edgepairs_((19,_20),_(9,_10))
 + edgepairs_((20,_21),_(9,_10)) + edgepairs_((21,_22),_(9,_10))
 + edgepairs_((22,_23),_(9,_10)) + edgepairs_((23,_24),_(9,_10))
 + edgepairs_((23,_25),_(9,_10)) + edgepairs_((28,_30),_(9,_10))
 + edgepairs_((3,_5),_(9,_10)) + edgepairs_((30,_31),_(9,_10))
 + edgepairs_((31,_32),_(9,_10)) + edgepairs_((32,_33),_(9,_10))
 + edgepairs_((33,_34),_(9,_10)) + edgepairs_((34,_35),_(9,_10))
 + edgepairs_((35,_36),_(9,_10)) + edgepairs_((36,_37),_(9,_10))
 + edgepairs_((37,_38),_(9,_10)) + edgepairs_((38,_39),_(9,_10))
 + edgepairs_((39,_40),_(9,_10)) + edgepairs_((40,_41),_(9,_10))
 + edgepairs_((40,_42),_(9,_10)) + edgepairs_((44,_46),_(9,_10))
 + edgepairs_((46,_47),_(9,_10)) + edgepairs_((47,_48),_(9,_10))
 + edgepairs_((48,_49),_(9,_10)) + edgepairs_((49,_50),_(9,_10))
 + edgepairs_((5,_6),_(9,_10)) + edgepairs_((50,_51),_(9,_10))
 + edgepairs_((51,_52),_(9,_10)) + edgepairs_((52,_53),_(9,_10))
 + edgepairs_((53,_54),_(9,_10)) + edgepairs_((6,_7),_(9,_10))
 + edgepairs_((7,_8),_(9,_10)) + edgepairs_((8,_9),_(9,_10))
 + edgepairs_((9,_10),_(9,_10)) + edgepairs_(_1,_(9,_10)) = 1
_C1760: edgepairs_((28,_30),_(28,_29)) - nodepairs_(28,_28)
 - nodepairs_(28,_29) <= 0
_C1761: edgepairs_((28,_30),_(29,_30)) - nodepairs_(28,_29)
 - nodepairs_(28,_30) <= 0
_C1762: edgepairs_((28,_30),_(30,_31)) - nodepairs_(28,_30)
 - nodepairs_(28,_31) <= 0
_C1763: edgepairs_((28,_30),_(31,_32)) - nodepairs_(28,_31)
 - nodepairs_(28,_32) <= 0
_C1764: edgepairs_((28,_30),_(32,_33)) - nodepairs_(28,_32)
 - nodepairs_(28,_33) <= 0
_C1765: edgepairs_((28,_30),_(33,_34)) - nodepairs_(28,_33)
 - nodepairs_(28,_34) <= 0
_C1766: edgepairs_((28,_30),_(34,_35)) - nodepairs_(28,_34)
 - nodepairs_(28,_35) <= 0
_C1767: edgepairs_((28,_30),_(35,_36)) - nodepairs_(28,_35)
 - nodepairs_(28,_36) <= 0
_C1768: edgepairs_((28,_30),_(36,_37)) - nodepairs_(28,_36)
 - nodepairs_(28,_37) <= 0
_C1769: edgepairs_((28,_30),_(37,_38)) - nodepairs_(28,_37)
 - nodepairs_(28,_38) <= 0
_C177: edgepairs_((0,_1),_(10,_11)) + edgepairs_((0,_26),_(10,_11))
 + edgepairs_((10,_11),_(10,_11)) + edgepairs_((11,_12),_(10,_11))
 + edgepairs_((12,_13),_(10,_11)) + edgepairs_((13,_14),_(10,_11))
 + edgepairs_((14,_15),_(10,_11)) + edgepairs_((15,_16),_(10,_11))
 + edgepairs_((16,_17),_(10,_11)) + edgepairs_((17,_18),_(10,_11))
 + edgepairs_((18,_19),_(10,_11)) + edgepairs_((19,_20),_(10,_11))
 + edgepairs_((20,_21),_(10,_11)) + edgepairs_((21,_22),_(10,_11))
 + edgepairs_((22,_23),_(10,_11)) + edgepairs_((23,_24),_(10,_11))
 + edgepairs_((23,_25),_(10,_11)) + edgepairs_((28,_30),_(10,_11))
 + edgepairs_((3,_5),_(10,_11)) + edgepairs_((30,_31),_(10,_11))
 + edgepairs_((31,_32),_(10,_11)) + edgepairs_((32,_33),_(10,_11))
 + edgepairs_((33,_34),_(10,_11)) + edgepairs_((34,_35),_(10,_11))
 + edgepairs_((35,_36),_(10,_11)) + edgepairs_((36,_37),_(10,_11))
 + edgepairs_((37,_38),_(10,_11)) + edgepairs_((38,_39),_(10,_11))
 + edgepairs_((39,_40),_(10,_11)) + edgepairs_((40,_41),_(10,_11))
 + edgepairs_((40,_42),_(10,_11)) + edgepairs_((44,_46),_(10,_11))
 + edgepairs_((46,_47),_(10,_11)) + edgepairs_((47,_48),_(10,_11))
 + edgepairs_((48,_49),_(10,_11)) + edgepairs_((49,_50),_(10,_11))
 + edgepairs_((5,_6),_(10,_11)) + edgepairs_((50,_51),_(10,_11))
 + edgepairs_((51,_52),_(10,_11)) + edgepairs_((52,_53),_(10,_11))
 + edgepairs_((53,_54),_(10,_11)) + edgepairs_((6,_7),_(10,_11))
 + edgepairs_((7,_8),_(10,_11)) + edgepairs_((8,_9),_(10,_11))
 + edgepairs_((9,_10),_(10,_11)) + edgepairs_(_1,_(10,_11)) = 1
_C1770: edgepairs_((28,_30),_(37,_39)) - nodepairs_(28,_37)
 - nodepairs_(28,_39) <= 0
_C1771: edgepairs_((28,_30),_(39,_40)) - nodepairs_(28,_39)
 - nodepairs_(28,_40) <= 0
_C1772: edgepairs_((27,_28),_(41,_42)) + edgepairs_((28,_29),_(41,_42))
 - nodepairs_(28,_42) <= 0
_C1773: edgepairs_((27,_28),_(42,_43)) + edgepairs_((28,_29),_(42,_43))
 - nodepairs_(28,_42) <= 0
_C1774: edgepairs_((28,_30),_(42,_44)) - nodepairs_(28,_42)
 - nodepairs_(28,_44) <= 0
_C1775: edgepairs_((28,_30),_(44,_45)) - nodepairs_(28,_44)
 - nodepairs_(28,_45) <= 0
_C1776: edgepairs_((28,_30),_(45,_46)) - nodepairs_(28,_45)
 - nodepairs_(28,_46) <= 0
_C1777: edgepairs_((28,_30),_(46,_47)) - nodepairs_(28,_46)
 - nodepairs_(28,_47) <= 0
_C1778: edgepairs_((28,_30),_(47,_48)) - nodepairs_(28,_47)
 - nodepairs_(28,_48) <= 0
_C1779: edgepairs_((28,_30),_(48,_49)) - nodepairs_(28,_48)
 - nodepairs_(28,_49) <= 0
_C178: edgepairs_((0,_1),_(11,_12)) + edgepairs_((0,_26),_(11,_12))
 + edgepairs_((10,_11),_(11,_12)) + edgepairs_((11,_12),_(11,_12))
 + edgepairs_((12,_13),_(11,_12)) + edgepairs_((13,_14),_(11,_12))
 + edgepairs_((14,_15),_(11,_12)) + edgepairs_((15,_16),_(11,_12))
 + edgepairs_((16,_17),_(11,_12)) + edgepairs_((17,_18),_(11,_12))
 + edgepairs_((18,_19),_(11,_12)) + edgepairs_((19,_20),_(11,_12))
 + edgepairs_((20,_21),_(11,_12)) + edgepairs_((21,_22),_(11,_12))
 + edgepairs_((22,_23),_(11,_12)) + edgepairs_((23,_24),_(11,_12))
 + edgepairs_((23,_25),_(11,_12)) + edgepairs_((28,_30),_(11,_12))
 + edgepairs_((3,_5),_(11,_12)) + edgepairs_((30,_31),_(11,_12))
 + edgepairs_((31,_32),_(11,_12)) + edgepairs_((32,_33),_(11,_12))
 + edgepairs_((33,_34),_(11,_12)) + edgepairs_((34,_35),_(11,_12))
 + edgepairs_((35,_36),_(11,_12)) + edgepairs_((36,_37),_(11,_12))
 + edgepairs_((37,_38),_(11,_12)) + edgepairs_((38,_39),_(11,_12))
 + edgepairs_((39,_40),_(11,_12)) + edgepairs_((40,_41),_(11,_12))
 + edgepairs_((40,_42),_(11,_12)) + edgepairs_((44,_46),_(11,_12))
 + edgepairs_((46,_47),_(11,_12)) + edgepairs_((47,_48),_(11,_12))
 + edgepairs_((48,_49),_(11,_12)) + edgepairs_((49,_50),_(11,_12))
 + edgepairs_((5,_6),_(11,_12)) + edgepairs_((50,_51),_(11,_12))
 + edgepairs_((51,_52),_(11,_12)) + edgepairs_((52,_53),_(11,_12))
 + edgepairs_((53,_54),_(11,_12)) + edgepairs_((6,_7),_(11,_12))
 + edgepairs_((7,_8),_(11,_12)) + edgepairs_((8,_9),_(11,_12))
 + edgepairs_((9,_10),_(11,_12)) + edgepairs_(_1,_(11,_12)) = 1
_C1780: edgepairs_((28,_30),_(49,_50)) - nodepairs_(28,_49)
 - nodepairs_(28,_50) <= 0
_C1781: edgepairs_((28,_30),_(50,_51)) - nodepairs_(28,_50)
 - nodepairs_(28,_51) <= 0
_C1782: edgepairs_((28,_30),_(51,_52)) - nodepairs_(28,_51)
 - nodepairs_(28,_52) <= 0
_C1783: edgepairs_((28,_30),_(52,_53)) - nodepairs_(28,_52)
 - nodepairs_(28,_53) <= 0
_C1784: edgepairs_((28,_30),_(53,_54)) - nodepairs_(28,_53)
 - nodepairs_(28,_54) <= 0
_C1785: __dummy <= 0
_C1786: __dummy <= 0
_C1787: edgepairs_((28,_29),_(0,_41)) - nodepairs_(29,_41) <= 0
_C1788: edgepairs_((28,_29),_(1,_2)) - nodepairs_(29,_2) <= 0
_C1789: edgepairs_((28,_29),_(2,_3)) - nodepairs_(29,_2) <= 0
_C179: edgepairs_((0,_1),_(12,_13)) + edgepairs_((0,_26),_(12,_13))
 + edgepairs_((10,_11),_(12,_13)) + edgepairs_((11,_12),_(12,_13))
 + edgepairs_((12,_13),_(12,_13)) + edgepairs_((13,_14),_(12,_13))
 + edgepairs_((14,_15),_(12,_13)) + edgepairs_((15,_16),_(12,_13))
 + edgepairs_((16,_17),_(12,_13)) + edgepairs_((17,_18),_(12,_13))
 + edgepairs_((18,_19),_(12,_13)) + edgepairs_((19,_20),_(12,_13))
 + edgepairs_((20,_21),_(12,_13)) + edgepairs_((21,_22),_(12,_13))
 + edgepairs_((22,_23),_(12,_13)) + edgepairs_((23,_24),_(12,_13))
 + edgepairs_((23,_25),_(12,_13)) + edgepairs_((28,_30),_(12,_13))
 + edgepairs_((3,_5),_(12,_13)) + edgepairs_((30,_31),_(12,_13))
 + edgepairs_((31,_32),_(12,_13)) + edgepairs_((32,_33),_(12,_13))
 + edgepairs_((33,_34),_(12,_13)) + edgepairs_((34,_35),_(12,_13))
 + edgepairs_((35,_36),_(12,_13)) + edgepairs_((36,_37),_(12,_13))
 + edgepairs_((37,_38),_(12,_13)) + edgepairs_((38,_39),_(12,_13))
 + edgepairs_((39,_40),_(12,_13)) + edgepairs_((40,_41),_(12,_13))
 + edgepairs_((40,_42),_(12,_13)) + edgepairs_((44,_46),_(12,_13))
 + edgepairs_((46,_47),_(12,_13)) + edgepairs_((47,_48),_(12,_13))
 + edgepairs_((48,_49),_(12,_13)) + edgepairs_((49,_50),_(12,_13))
 + edgepairs_((5,_6),_(12,_13)) + edgepairs_((50,_51),_(12,_13))
 + edgepairs_((51,_52),_(12,_13)) + edgepairs_((52,_53),_(12,_13))
 + edgepairs_((53,_54),_(12,_13)) + edgepairs_((6,_7),_(12,_13))
 + edgepairs_((7,_8),_(12,_13)) + edgepairs_((8,_9),_(12,_13))
 + edgepairs_((9,_10),_(12,_13)) + edgepairs_(_1,_(12,_13)) = 1
_C1790: edgepairs_((28,_29),_(3,_4)) - nodepairs_(29,_4) <= 0
_C1791: __dummy <= 0
_C1792: __dummy <= 0
_C1793: __dummy <= 0
_C1794: __dummy <= 0
_C1795: __dummy <= 0
_C1796: __dummy <= 0
_C1797: __dummy <= 0
_C1798: __dummy <= 0
_C1799: __dummy <= 0
_C18: nodepairs_(17,_0) + nodepairs_(17,_1) + nodepairs_(17,_10)
 + nodepairs_(17,_11) + nodepairs_(17,_12) + nodepairs_(17,_13)
 + nodepairs_(17,_14) + nodepairs_(17,_15) + nodepairs_(17,_16)
 + nodepairs_(17,_17) + nodepairs_(17,_19) + nodepairs_(17,_21)
 + nodepairs_(17,_22) + nodepairs_(17,_23) + nodepairs_(17,_24)
 + nodepairs_(17,_25) + nodepairs_(17,_26) + nodepairs_(17,_27)
 + nodepairs_(17,_28) + nodepairs_(17,_29) + nodepairs_(17,_3)
 + nodepairs_(17,_30) + nodepairs_(17,_31) + nodepairs_(17,_32)
 + nodepairs_(17,_33) + nodepairs_(17,_34) + nodepairs_(17,_35)
 + nodepairs_(17,_36) + nodepairs_(17,_37) + nodepairs_(17,_38)
 + nodepairs_(17,_39) + nodepairs_(17,_40) + nodepairs_(17,_42)
 + nodepairs_(17,_44) + nodepairs_(17,_45) + nodepairs_(17,_46)
 + nodepairs_(17,_47) + nodepairs_(17,_48) + nodepairs_(17,_49)
 + nodepairs_(17,_5) + nodepairs_(17,_50) + nodepairs_(17,_51)
 + nodepairs_(17,_52) + nodepairs_(17,_53) + nodepairs_(17,_54)
 + nodepairs_(17,_6) + nodepairs_(17,_7) + nodepairs_(17,_8)
 + nodepairs_(17,_9) <= 1
_C180: edgepairs_((0,_1),_(13,_14)) + edgepairs_((0,_26),_(13,_14))
 + edgepairs_((10,_11),_(13,_14)) + edgepairs_((11,_12),_(13,_14))
 + edgepairs_((12,_13),_(13,_14)) + edgepairs_((13,_14),_(13,_14))
 + edgepairs_((14,_15),_(13,_14)) + edgepairs_((15,_16),_(13,_14))
 + edgepairs_((16,_17),_(13,_14)) + edgepairs_((17,_18),_(13,_14))
 + edgepairs_((18,_19),_(13,_14)) + edgepairs_((19,_20),_(13,_14))
 + edgepairs_((20,_21),_(13,_14)) + edgepairs_((21,_22),_(13,_14))
 + edgepairs_((22,_23),_(13,_14)) + edgepairs_((23,_24),_(13,_14))
 + edgepairs_((23,_25),_(13,_14)) + edgepairs_((28,_30),_(13,_14))
 + edgepairs_((3,_5),_(13,_14)) + edgepairs_((30,_31),_(13,_14))
 + edgepairs_((31,_32),_(13,_14)) + edgepairs_((32,_33),_(13,_14))
 + edgepairs_((33,_34),_(13,_14)) + edgepairs_((34,_35),_(13,_14))
 + edgepairs_((35,_36),_(13,_14)) + edgepairs_((36,_37),_(13,_14))
 + edgepairs_((37,_38),_(13,_14)) + edgepairs_((38,_39),_(13,_14))
 + edgepairs_((39,_40),_(13,_14)) + edgepairs_((40,_41),_(13,_14))
 + edgepairs_((40,_42),_(13,_14)) + edgepairs_((44,_46),_(13,_14))
 + edgepairs_((46,_47),_(13,_14)) + edgepairs_((47,_48),_(13,_14))
 + edgepairs_((48,_49),_(13,_14)) + edgepairs_((49,_50),_(13,_14))
 + edgepairs_((5,_6),_(13,_14)) + edgepairs_((50,_51),_(13,_14))
 + edgepairs_((51,_52),_(13,_14)) + edgepairs_((52,_53),_(13,_14))
 + edgepairs_((53,_54),_(13,_14)) + edgepairs_((6,_7),_(13,_14))
 + edgepairs_((7,_8),_(13,_14)) + edgepairs_((8,_9),_(13,_14))
 + edgepairs_((9,_10),_(13,_14)) + edgepairs_(_1,_(13,_14)) = 1
_C1800: __dummy <= 0
_C1801: __dummy <= 0
_C1802: __dummy <= 0
_C1803: edgepairs_((28,_29),_(17,_18)) - nodepairs_(29,_18) <= 0
_C1804: edgepairs_((28,_29),_(18,_19)) - nodepairs_(29,_18) <= 0
_C1805: edgepairs_((28,_29),_(19,_20)) - nodepairs_(29,_20) <= 0
_C1806: __dummy <= 0
_C1807: __dummy <= 0
_C1808: __dummy <= 0
_C1809: __dummy <= 0
_C181: edgepairs_((0,_1),_(14,_15)) + edgepairs_((0,_26),_(14,_15))
 + edgepairs_((10,_11),_(14,_15)) + edgepairs_((11,_12),_(14,_15))
 + edgepairs_((12,_13),_(14,_15)) + edgepairs_((13,_14),_(14,_15))
 + edgepairs_((14,_15),_(14,_15)) + edgepairs_((15,_16),_(14,_15))
 + edgepairs_((16,_17),_(14,_15)) + edgepairs_((17,_18),_(14,_15))
 + edgepairs_((18,_19),_(14,_15)) + edgepairs_((19,_20),_(14,_15))
 + edgepairs_((20,_21),_(14,_15)) + edgepairs_((21,_22),_(14,_15))
 + edgepairs_((22,_23),_(14,_15)) + edgepairs_((23,_24),_(14,_15))
 + edgepairs_((23,_25),_(14,_15)) + edgepairs_((28,_30),_(14,_15))
 + edgepairs_((3,_5),_(14,_15)) + edgepairs_((30,_31),_(14,_15))
 + edgepairs_((31,_32),_(14,_15)) + edgepairs_((32,_33),_(14,_15))
 + edgepairs_((33,_34),_(14,_15)) + edgepairs_((34,_35),_(14,_15))
 + edgepairs_((35,_36),_(14,_15)) + edgepairs_((36,_37),_(14,_15))
 + edgepairs_((37,_38),_(14,_15)) + edgepairs_((38,_39),_(14,_15))
 + edgepairs_((39,_40),_(14,_15)) + edgepairs_((40,_41),_(14,_15))
 + edgepairs_((40,_42),_(14,_15)) + edgepairs_((44,_46),_(14,_15))
 + edgepairs_((46,_47),_(14,_15)) + edgepairs_((47,_48),_(14,_15))
 + edgepairs_((48,_49),_(14,_15)) + edgepairs_((49,_50),_(14,_15))
 + edgepairs_((5,_6),_(14,_15)) + edgepairs_((50,_51),_(14,_15))
 + edgepairs_((51,_52),_(14,_15)) + edgepairs_((52,_53),_(14,_15))
 + edgepairs_((53,_54),_(14,_15)) + edgepairs_((6,_7),_(14,_15))
 + edgepairs_((7,_8),_(14,_15)) + edgepairs_((8,_9),_(14,_15))
 + edgepairs_((9,_10),_(14,_15)) + edgepairs_(_1,_(14,_15)) = 1
_C1810: __dummy <= 0
_C1811: __dummy <= 0
_C1812: __dummy <= 0
_C1813: __dummy <= 0
_C1814: __dummy <= 0
_C1815: __dummy <= 0
_C1816: __dummy <= 0
_C1817: __dummy <= 0
_C1818: __dummy <= 0
_C1819: __dummy <= 0
_C182: edgepairs_((0,_1),_(15,_16)) + edgepairs_((0,_26),_(15,_16))
 + edgepairs_((10,_11),_(15,_16)) + edgepairs_((11,_12),_(15,_16))
 + edgepairs_((12,_13),_(15,_16)) + edgepairs_((13,_14),_(15,_16))
 + edgepairs_((14,_15),_(15,_16)) + edgepairs_((15,_16),_(15,_16))
 + edgepairs_((16,_17),_(15,_16)) + edgepairs_((17,_18),_(15,_16))
 + edgepairs_((18,_19),_(15,_16)) + edgepairs_((19,_20),_(15,_16))
 + edgepairs_((20,_21),_(15,_16)) + edgepairs_((21,_22),_(15,_16))
 + edgepairs_((22,_23),_(15,_16)) + edgepairs_((23,_24),_(15,_16))
 + edgepairs_((23,_25),_(15,_16)) + edgepairs_((28,_30),_(15,_16))
 + edgepairs_((3,_5),_(15,_16)) + edgepairs_((30,_31),_(15,_16))
 + edgepairs_((31,_32),_(15,_16)) + edgepairs_((32,_33),_(15,_16))
 + edgepairs_((33,_34),_(15,_16)) + edgepairs_((34,_35),_(15,_16))
 + edgepairs_((35,_36),_(15,_16)) + edgepairs_((36,_37),_(15,_16))
 + edgepairs_((37,_38),_(15,_16)) + edgepairs_((38,_39),_(15,_16))
 + edgepairs_((39,_40),_(15,_16)) + edgepairs_((40,_41),_(15,_16))
 + edgepairs_((40,_42),_(15,_16)) + edgepairs_((44,_46),_(15,_16))
 + edgepairs_((46,_47),_(15,_16)) + edgepairs_((47,_48),_(15,_16))
 + edgepairs_((48,_49),_(15,_16)) + edgepairs_((49,_50),_(15,_16))
 + edgepairs_((5,_6),_(15,_16)) + edgepairs_((50,_51),_(15,_16))
 + edgepairs_((51,_52),_(15,_16)) + edgepairs_((52,_53),_(15,_16))
 + edgepairs_((53,_54),_(15,_16)) + edgepairs_((6,_7),_(15,_16))
 + edgepairs_((7,_8),_(15,_16)) + edgepairs_((8,_9),_(15,_16))
 + edgepairs_((9,_10),_(15,_16)) + edgepairs_(_1,_(15,_16)) = 1
_C1820: __dummy <= 0
_C1821: __dummy <= 0
_C1822: __dummy <= 0
_C1823: __dummy <= 0
_C1824: __dummy <= 0
_C1825: __dummy <= 0
_C1826: edgepairs_((28,_29),_(41,_42)) - nodepairs_(29,_41) <= 0
_C1827: edgepairs_((28,_29),_(42,_43)) - nodepairs_(29,_43) <= 0
_C1828: __dummy <= 0
_C1829: __dummy <= 0
_C183: edgepairs_((0,_43),_(17,_18)) + edgepairs_((1,_2),_(17,_18))
 + edgepairs_((2,_3),_(17,_18)) + edgepairs_((26,_27),_(17,_18))
 + edgepairs_((27,_28),_(17,_18)) + edgepairs_((28,_29),_(17,_18))
 + edgepairs_((3,_4),_(17,_18)) + edgepairs_((43,_44),_(17,_18))
 + edgepairs_((44,_45),_(17,_18)) + edgepairs_(_1,_(17,_18)) = 1
_C1830: __dummy <= 0
_C1831: __dummy <= 0
_C1832: __dummy <= 0
_C1833: __dummy <= 0
_C1834: __dummy <= 0
_C1835: __dummy <= 0
_C1836: __dummy <= 0
_C1837: __dummy <= 0
_C1838: __dummy <= 0
_C1839: edgepairs_((28,_30),_(0,_1)) + edgepairs_((30,_31),_(0,_1))
 - nodepairs_(30,_0) - nodepairs_(30,_1) <= 0
_C184: edgepairs_((0,_43),_(18,_19)) + edgepairs_((1,_2),_(18,_19))
 + edgepairs_((2,_3),_(18,_19)) + edgepairs_((26,_27),_(18,_19))
 + edgepairs_((27,_28),_(18,_19)) + edgepairs_((28,_29),_(18,_19))
 + edgepairs_((3,_4),_(18,_19)) + edgepairs_((43,_44),_(18,_19))
 + edgepairs_((44,_45),_(18,_19)) + edgepairs_(_1,_(18,_19)) = 1
_C1840: edgepairs_((28,_30),_(0,_17)) + edgepairs_((30,_31),_(0,_17))
 - nodepairs_(30,_0) - nodepairs_(30,_17) <= 0
_C1841: - nodepairs_(30,_0) <= 0
_C1842: - nodepairs_(30,_1) <= 0
_C1843: - nodepairs_(30,_3) <= 0
_C1844: - nodepairs_(30,_3) <= 0
_C1845: edgepairs_((28,_30),_(3,_5)) + edgepairs_((30,_31),_(3,_5))
 - nodepairs_(30,_3) - nodepairs_(30,_5) <= 0
_C1846: edgepairs_((28,_30),_(5,_6)) + edgepairs_((30,_31),_(5,_6))
 - nodepairs_(30,_5) - nodepairs_(30,_6) <= 0
_C1847: edgepairs_((28,_30),_(6,_7)) + edgepairs_((30,_31),_(6,_7))
 - nodepairs_(30,_6) - nodepairs_(30,_7) <= 0
_C1848: edgepairs_((28,_30),_(7,_8)) + edgepairs_((30,_31),_(7,_8))
 - nodepairs_(30,_7) - nodepairs_(30,_8) <= 0
_C1849: edgepairs_((28,_30),_(8,_9)) + edgepairs_((30,_31),_(8,_9))
 - nodepairs_(30,_8) - nodepairs_(30,_9) <= 0
_C185: edgepairs_((0,_43),_(19,_20)) + edgepairs_((1,_2),_(19,_20))
 + edgepairs_((2,_3),_(19,_20)) + edgepairs_((26,_27),_(19,_20))
 + edgepairs_((27,_28),_(19,_20)) + edgepairs_((28,_29),_(19,_20))
 + edgepairs_((3,_4),_(19,_20)) + edgepairs_((43,_44),_(19,_20))
 + edgepairs_((44,_45),_(19,_20)) + edgepairs_(_1,_(19,_20)) = 1
_C1850: edgepairs_((28,_30),_(9,_10)) + edgepairs_((30,_31),_(9,_10))
 - nodepairs_(30,_10) - nodepairs_(30,_9) <= 0
_C1851: edgepairs_((28,_30),_(10,_11)) + edgepairs_((30,_31),_(10,_11))
 - nodepairs_(30,_10) - nodepairs_(30,_11) <= 0
_C1852: edgepairs_((28,_30),_(11,_12)) + edgepairs_((30,_31),_(11,_12))
 - nodepairs_(30,_11) - nodepairs_(30,_12) <= 0
_C1853: edgepairs_((28,_30),_(12,_13)) + edgepairs_((30,_31),_(12,_13))
 - nodepairs_(30,_12) - nodepairs_(30,_13) <= 0
_C1854: edgepairs_((28,_30),_(13,_14)) + edgepairs_((30,_31),_(13,_14))
 - nodepairs_(30,_13) - nodepairs_(30,_14) <= 0
_C1855: edgepairs_((28,_30),_(14,_15)) + edgepairs_((30,_31),_(14,_15))
 - nodepairs_(30,_14) - nodepairs_(30,_15) <= 0
_C1856: edgepairs_((28,_30),_(15,_16)) + edgepairs_((30,_31),_(15,_16))
 - nodepairs_(30,_15) - nodepairs_(30,_16) <= 0
_C1857: - nodepairs_(30,_17) <= 0
_C1858: - nodepairs_(30,_19) <= 0
_C1859: - nodepairs_(30,_19) <= 0
_C186: edgepairs_((0,_1),_(19,_21)) + edgepairs_((0,_26),_(19,_21))
 + edgepairs_((10,_11),_(19,_21)) + edgepairs_((11,_12),_(19,_21))
 + edgepairs_((12,_13),_(19,_21)) + edgepairs_((13,_14),_(19,_21))
 + edgepairs_((14,_15),_(19,_21)) + edgepairs_((15,_16),_(19,_21))
 + edgepairs_((16,_17),_(19,_21)) + edgepairs_((17,_18),_(19,_21))
 + edgepairs_((18,_19),_(19,_21)) + edgepairs_((19,_20),_(19,_21))
 + edgepairs_((20,_21),_(19,_21)) + edgepairs_((21,_22),_(19,_21))
 + edgepairs_((22,_23),_(19,_21)) + edgepairs_((23,_24),_(19,_21))
 + edgepairs_((23,_25),_(19,_21)) + edgepairs_((28,_30),_(19,_21))
 + edgepairs_((3,_5),_(19,_21)) + edgepairs_((30,_31),_(19,_21))
 + edgepairs_((31,_32),_(19,_21)) + edgepairs_((32,_33),_(19,_21))
 + edgepairs_((33,_34),_(19,_21)) + edgepairs_((34,_35),_(19,_21))
 + edgepairs_((35,_36),_(19,_21)) + edgepairs_((36,_37),_(19,_21))
 + edgepairs_((37,_38),_(19,_21)) + edgepairs_((38,_39),_(19,_21))
 + edgepairs_((39,_40),_(19,_21)) + edgepairs_((40,_41),_(19,_21))
 + edgepairs_((40,_42),_(19,_21)) + edgepairs_((44,_46),_(19,_21))
 + edgepairs_((46,_47),_(19,_21)) + edgepairs_((47,_48),_(19,_21))
 + edgepairs_((48,_49),_(19,_21)) + edgepairs_((49,_50),_(19,_21))
 + edgepairs_((5,_6),_(19,_21)) + edgepairs_((50,_51),_(19,_21))
 + edgepairs_((51,_52),_(19,_21)) + edgepairs_((52,_53),_(19,_21))
 + edgepairs_((53,_54),_(19,_21)) + edgepairs_((6,_7),_(19,_21))
 + edgepairs_((7,_8),_(19,_21)) + edgepairs_((8,_9),_(19,_21))
 + edgepairs_((9,_10),_(19,_21)) + edgepairs_(_1,_(19,_21)) = 1
_C1860: edgepairs_((28,_30),_(19,_21)) + edgepairs_((30,_31),_(19,_21))
 - nodepairs_(30,_19) - nodepairs_(30,_21) <= 0
_C1861: edgepairs_((28,_30),_(21,_22)) + edgepairs_((30,_31),_(21,_22))
 - nodepairs_(30,_21) - nodepairs_(30,_22) <= 0
_C1862: edgepairs_((28,_30),_(22,_23)) + edgepairs_((30,_31),_(22,_23))
 - nodepairs_(30,_22) - nodepairs_(30,_23) <= 0
_C1863: edgepairs_((28,_30),_(23,_24)) + edgepairs_((30,_31),_(23,_24))
 - nodepairs_(30,_23) - nodepairs_(30,_24) <= 0
_C1864: edgepairs_((28,_30),_(24,_25)) + edgepairs_((30,_31),_(24,_25))
 - nodepairs_(30,_24) - nodepairs_(30,_25) <= 0
_C1865: edgepairs_((28,_30),_(25,_26)) + edgepairs_((30,_31),_(25,_26))
 - nodepairs_(30,_25) - nodepairs_(30,_26) <= 0
_C1866: edgepairs_((28,_30),_(26,_27)) + edgepairs_((30,_31),_(26,_27))
 - nodepairs_(30,_26) - nodepairs_(30,_27) <= 0
_C1867: edgepairs_((28,_30),_(27,_28)) + edgepairs_((30,_31),_(27,_28))
 - nodepairs_(30,_27) - nodepairs_(30,_28) <= 0
_C1868: edgepairs_((28,_30),_(28,_29)) + edgepairs_((30,_31),_(28,_29))
 - nodepairs_(30,_28) - nodepairs_(30,_29) <= 0
_C1869: edgepairs_((28,_30),_(29,_30)) + edgepairs_((30,_31),_(29,_30))
 - nodepairs_(30,_29) - nodepairs_(30,_30) <= 0
_C187: edgepairs_((0,_1),_(21,_22)) + edgepairs_((0,_26),_(21,_22))
 + edgepairs_((10,_11),_(21,_22)) + edgepairs_((11,_12),_(21,_22))
 + edgepairs_((12,_13),_(21,_22)) + edgepairs_((13,_14),_(21,_22))
 + edgepairs_((14,_15),_(21,_22)) + edgepairs_((15,_16),_(21,_22))
 + edgepairs_((16,_17),_(21,_22)) + edgepairs_((17,_18),_(21,_22))
 + edgepairs_((18,_19),_(21,_22)) + edgepairs_((19,_20),_(21,_22))
 + edgepairs_((20,_21),_(21,_22)) + edgepairs_((21,_22),_(21,_22))
 + edgepairs_((22,_23),_(21,_22)) + edgepairs_((23,_24),_(21,_22))
 + edgepairs_((23,_25),_(21,_22)) + edgepairs_((28,_30),_(21,_22))
 + edgepairs_((3,_5),_(21,_22)) + edgepairs_((30,_31),_(21,_22))
 + edgepairs_((31,_32),_(21,_22)) + edgepairs_((32,_33),_(21,_22))
 + edgepairs_((33,_34),_(21,_22)) + edgepairs_((34,_35),_(21,_22))
 + edgepairs_((35,_36),_(21,_22)) + edgepairs_((36,_37),_(21,_22))
 + edgepairs_((37,_38),_(21,_22)) + edgepairs_((38,_39),_(21,_22))
 + edgepairs_((39,_40),_(21,_22)) + edgepairs_((40,_41),_(21,_22))
 + edgepairs_((40,_42),_(21,_22)) + edgepairs_((44,_46),_(21,_22))
 + edgepairs_((46,_47),_(21,_22)) + edgepairs_((47,_48),_(21,_22))
 + edgepairs_((48,_49),_(21,_22)) + edgepairs_((49,_50),_(21,_22))
 + edgepairs_((5,_6),_(21,_22)) + edgepairs_((50,_51),_(21,_22))
 + edgepairs_((51,_52),_(21,_22)) + edgepairs_((52,_53),_(21,_22))
 + edgepairs_((53,_54),_(21,_22)) + edgepairs_((6,_7),_(21,_22))
 + edgepairs_((7,_8),_(21,_22)) + edgepairs_((8,_9),_(21,_22))
 + edgepairs_((9,_10),_(21,_22)) + edgepairs_(_1,_(21,_22)) = 1
_C1870: edgepairs_((28,_30),_(30,_31)) + edgepairs_((30,_31),_(30,_31))
 - nodepairs_(30,_30) - nodepairs_(30,_31) <= 0
_C1871: edgepairs_((28,_30),_(31,_32)) + edgepairs_((30,_31),_(31,_32))
 - nodepairs_(30,_31) - nodepairs_(30,_32) <= 0
_C1872: edgepairs_((28,_30),_(32,_33)) + edgepairs_((30,_31),_(32,_33))
 - nodepairs_(30,_32) - nodepairs_(30,_33) <= 0
_C1873: edgepairs_((28,_30),_(33,_34)) + edgepairs_((30,_31),_(33,_34))
 - nodepairs_(30,_33) - nodepairs_(30,_34) <= 0
_C1874: edgepairs_((28,_30),_(34,_35)) + edgepairs_((30,_31),_(34,_35))
 - nodepairs_(30,_34) - nodepairs_(30,_35) <= 0
_C1875: edgepairs_((28,_30),_(35,_36)) + edgepairs_((30,_31),_(35,_36))
 - nodepairs_(30,_35) - nodepairs_(30,_36) <= 0
_C1876: edgepairs_((28,_30),_(36,_37)) + edgepairs_((30,_31),_(36,_37))
 - nodepairs_(30,_36) - nodepairs_(30,_37) <= 0
_C1877: edgepairs_((28,_30),_(37,_38)) + edgepairs_((30,_31),_(37,_38))
 - nodepairs_(30,_37) - nodepairs_(30,_38) <= 0
_C1878: edgepairs_((28,_30),_(37,_39)) + edgepairs_((30,_31),_(37,_39))
 - nodepairs_(30,_37) - nodepairs_(30,_39) <= 0
_C1879: edgepairs_((28,_30),_(39,_40)) + edgepairs_((30,_31),_(39,_40))
 - nodepairs_(30,_39) - nodepairs_(30,_40) <= 0
_C188: edgepairs_((0,_1),_(22,_23)) + edgepairs_((0,_26),_(22,_23))
 + edgepairs_((10,_11),_(22,_23)) + edgepairs_((11,_12),_(22,_23))
 + edgepairs_((12,_13),_(22,_23)) + edgepairs_((13,_14),_(22,_23))
 + edgepairs_((14,_15),_(22,_23)) + edgepairs_((15,_16),_(22,_23))
 + edgepairs_((16,_17),_(22,_23)) + edgepairs_((17,_18),_(22,_23))
 + edgepairs_((18,_19),_(22,_23)) + edgepairs_((19,_20),_(22,_23))
 + edgepairs_((20,_21),_(22,_23)) + edgepairs_((21,_22),_(22,_23))
 + edgepairs_((22,_23),_(22,_23)) + edgepairs_((23,_24),_(22,_23))
 + edgepairs_((23,_25),_(22,_23)) + edgepairs_((28,_30),_(22,_23))
 + edgepairs_((3,_5),_(22,_23)) + edgepairs_((30,_31),_(22,_23))
 + edgepairs_((31,_32),_(22,_23)) + edgepairs_((32,_33),_(22,_23))
 + edgepairs_((33,_34),_(22,_23)) + edgepairs_((34,_35),_(22,_23))
 + edgepairs_((35,_36),_(22,_23)) + edgepairs_((36,_37),_(22,_23))
 + edgepairs_((37,_38),_(22,_23)) + edgepairs_((38,_39),_(22,_23))
 + edgepairs_((39,_40),_(22,_23)) + edgepairs_((40,_41),_(22,_23))
 + edgepairs_((40,_42),_(22,_23)) + edgepairs_((44,_46),_(22,_23))
 + edgepairs_((46,_47),_(22,_23)) + edgepairs_((47,_48),_(22,_23))
 + edgepairs_((48,_49),_(22,_23)) + edgepairs_((49,_50),_(22,_23))
 + edgepairs_((5,_6),_(22,_23)) + edgepairs_((50,_51),_(22,_23))
 + edgepairs_((51,_52),_(22,_23)) + edgepairs_((52,_53),_(22,_23))
 + edgepairs_((53,_54),_(22,_23)) + edgepairs_((6,_7),_(22,_23))
 + edgepairs_((7,_8),_(22,_23)) + edgepairs_((8,_9),_(22,_23))
 + edgepairs_((9,_10),_(22,_23)) + edgepairs_(_1,_(22,_23)) = 1
_C1880: - nodepairs_(30,_42) <= 0
_C1881: - nodepairs_(30,_42) <= 0
_C1882: edgepairs_((28,_30),_(42,_44)) + edgepairs_((30,_31),_(42,_44))
 - nodepairs_(30,_42) - nodepairs_(30,_44) <= 0
_C1883: edgepairs_((28,_30),_(44,_45)) + edgepairs_((30,_31),_(44,_45))
 - nodepairs_(30,_44) - nodepairs_(30,_45) <= 0
_C1884: edgepairs_((28,_30),_(45,_46)) + edgepairs_((30,_31),_(45,_46))
 - nodepairs_(30,_45) - nodepairs_(30,_46) <= 0
_C1885: edgepairs_((28,_30),_(46,_47)) + edgepairs_((30,_31),_(46,_47))
 - nodepairs_(30,_46) - nodepairs_(30,_47) <= 0
_C1886: edgepairs_((28,_30),_(47,_48)) + edgepairs_((30,_31),_(47,_48))
 - nodepairs_(30,_47) - nodepairs_(30,_48) <= 0
_C1887: edgepairs_((28,_30),_(48,_49)) + edgepairs_((30,_31),_(48,_49))
 - nodepairs_(30,_48) - nodepairs_(30,_49) <= 0
_C1888: edgepairs_((28,_30),_(49,_50)) + edgepairs_((30,_31),_(49,_50))
 - nodepairs_(30,_49) - nodepairs_(30,_50) <= 0
_C1889: edgepairs_((28,_30),_(50,_51)) + edgepairs_((30,_31),_(50,_51))
 - nodepairs_(30,_50) - nodepairs_(30,_51) <= 0
_C189: edgepairs_((0,_1),_(23,_24)) + edgepairs_((0,_26),_(23,_24))
 + edgepairs_((10,_11),_(23,_24)) + edgepairs_((11,_12),_(23,_24))
 + edgepairs_((12,_13),_(23,_24)) + edgepairs_((13,_14),_(23,_24))
 + edgepairs_((14,_15),_(23,_24)) + edgepairs_((15,_16),_(23,_24))
 + edgepairs_((16,_17),_(23,_24)) + edgepairs_((17,_18),_(23,_24))
 + edgepairs_((18,_19),_(23,_24)) + edgepairs_((19,_20),_(23,_24))
 + edgepairs_((20,_21),_(23,_24)) + edgepairs_((21,_22),_(23,_24))
 + edgepairs_((22,_23),_(23,_24)) + edgepairs_((23,_24),_(23,_24))
 + edgepairs_((23,_25),_(23,_24)) + edgepairs_((28,_30),_(23,_24))
 + edgepairs_((3,_5),_(23,_24)) + edgepairs_((30,_31),_(23,_24))
 + edgepairs_((31,_32),_(23,_24)) + edgepairs_((32,_33),_(23,_24))
 + edgepairs_((33,_34),_(23,_24)) + edgepairs_((34,_35),_(23,_24))
 + edgepairs_((35,_36),_(23,_24)) + edgepairs_((36,_37),_(23,_24))
 + edgepairs_((37,_38),_(23,_24)) + edgepairs_((38,_39),_(23,_24))
 + edgepairs_((39,_40),_(23,_24)) + edgepairs_((40,_41),_(23,_24))
 + edgepairs_((40,_42),_(23,_24)) + edgepairs_((44,_46),_(23,_24))
 + edgepairs_((46,_47),_(23,_24)) + edgepairs_((47,_48),_(23,_24))
 + edgepairs_((48,_49),_(23,_24)) + edgepairs_((49,_50),_(23,_24))
 + edgepairs_((5,_6),_(23,_24)) + edgepairs_((50,_51),_(23,_24))
 + edgepairs_((51,_52),_(23,_24)) + edgepairs_((52,_53),_(23,_24))
 + edgepairs_((53,_54),_(23,_24)) + edgepairs_((6,_7),_(23,_24))
 + edgepairs_((7,_8),_(23,_24)) + edgepairs_((8,_9),_(23,_24))
 + edgepairs_((9,_10),_(23,_24)) + edgepairs_(_1,_(23,_24)) = 1
_C1890: edgepairs_((28,_30),_(51,_52)) + edgepairs_((30,_31),_(51,_52))
 - nodepairs_(30,_51) - nodepairs_(30,_52) <= 0
_C1891: edgepairs_((28,_30),_(52,_53)) + edgepairs_((30,_31),_(52,_53))
 - nodepairs_(30,_52) - nodepairs_(30,_53) <= 0
_C1892: edgepairs_((28,_30),_(53,_54)) + edgepairs_((30,_31),_(53,_54))
 - nodepairs_(30,_53) - nodepairs_(30,_54) <= 0
_C1893: edgepairs_((30,_31),_(0,_1)) + edgepairs_((31,_32),_(0,_1))
 - nodepairs_(31,_0) - nodepairs_(31,_1) <= 0
_C1894: edgepairs_((30,_31),_(0,_17)) + edgepairs_((31,_32),_(0,_17))
 - nodepairs_(31,_0) - nodepairs_(31,_17) <= 0
_C1895: - nodepairs_(31,_0) <= 0
_C1896: - nodepairs_(31,_1) <= 0
_C1897: - nodepairs_(31,_3) <= 0
_C1898: - nodepairs_(31,_3) <= 0
_C1899: edgepairs_((30,_31),_(3,_5)) + edgepairs_((31,_32),_(3,_5))
 - nodepairs_(31,_3) - nodepairs_(31,_5) <= 0
_C19: nodepairs_(18,_0) + nodepairs_(18,_1) + nodepairs_(18,_10)
 + nodepairs_(18,_11) + nodepairs_(18,_12) + nodepairs_(18,_13)
 + nodepairs_(18,_14) + nodepairs_(18,_15) + nodepairs_(18,_16)
 + nodepairs_(18,_17) + nodepairs_(18,_19) + nodepairs_(18,_21)
 + nodepairs_(18,_22) + nodepairs_(18,_23) + nodepairs_(18,_24)
 + nodepairs_(18,_25) + nodepairs_(18,_26) + nodepairs_(18,_27)
 + nodepairs_(18,_28) + nodepairs_(18,_29) + nodepairs_(18,_3)
 + nodepairs_(18,_30) + nodepairs_(18,_31) + nodepairs_(18,_32)
 + nodepairs_(18,_33) + nodepairs_(18,_34) + nodepairs_(18,_35)
 + nodepairs_(18,_36) + nodepairs_(18,_37) + nodepairs_(18,_38)
 + nodepairs_(18,_39) + nodepairs_(18,_40) + nodepairs_(18,_42)
 + nodepairs_(18,_44) + nodepairs_(18,_45) + nodepairs_(18,_46)
 + nodepairs_(18,_47) + nodepairs_(18,_48) + nodepairs_(18,_49)
 + nodepairs_(18,_5) + nodepairs_(18,_50) + nodepairs_(18,_51)
 + nodepairs_(18,_52) + nodepairs_(18,_53) + nodepairs_(18,_54)
 + nodepairs_(18,_6) + nodepairs_(18,_7) + nodepairs_(18,_8)
 + nodepairs_(18,_9) <= 1
_C190: edgepairs_((0,_1),_(24,_25)) + edgepairs_((0,_26),_(24,_25))
 + edgepairs_((10,_11),_(24,_25)) + edgepairs_((11,_12),_(24,_25))
 + edgepairs_((12,_13),_(24,_25)) + edgepairs_((13,_14),_(24,_25))
 + edgepairs_((14,_15),_(24,_25)) + edgepairs_((15,_16),_(24,_25))
 + edgepairs_((16,_17),_(24,_25)) + edgepairs_((17,_18),_(24,_25))
 + edgepairs_((18,_19),_(24,_25)) + edgepairs_((19,_20),_(24,_25))
 + edgepairs_((20,_21),_(24,_25)) + edgepairs_((21,_22),_(24,_25))
 + edgepairs_((22,_23),_(24,_25)) + edgepairs_((23,_24),_(24,_25))
 + edgepairs_((23,_25),_(24,_25)) + edgepairs_((28,_30),_(24,_25))
 + edgepairs_((3,_5),_(24,_25)) + edgepairs_((30,_31),_(24,_25))
 + edgepairs_((31,_32),_(24,_25)) + edgepairs_((32,_33),_(24,_25))
 + edgepairs_((33,_34),_(24,_25)) + edgepairs_((34,_35),_(24,_25))
 + edgepairs_((35,_36),_(24,_25)) + edgepairs_((36,_37),_(24,_25))
 + edgepairs_((37,_38),_(24,_25)) + edgepairs_((38,_39),_(24,_25))
 + edgepairs_((39,_40),_(24,_25)) + edgepairs_((40,_41),_(24,_25))
 + edgepairs_((40,_42),_(24,_25)) + edgepairs_((44,_46),_(24,_25))
 + edgepairs_((46,_47),_(24,_25)) + edgepairs_((47,_48),_(24,_25))
 + edgepairs_((48,_49),_(24,_25)) + edgepairs_((49,_50),_(24,_25))
 + edgepairs_((5,_6),_(24,_25)) + edgepairs_((50,_51),_(24,_25))
 + edgepairs_((51,_52),_(24,_25)) + edgepairs_((52,_53),_(24,_25))
 + edgepairs_((53,_54),_(24,_25)) + edgepairs_((6,_7),_(24,_25))
 + edgepairs_((7,_8),_(24,_25)) + edgepairs_((8,_9),_(24,_25))
 + edgepairs_((9,_10),_(24,_25)) + edgepairs_(_1,_(24,_25)) = 1
_C1900: edgepairs_((30,_31),_(5,_6)) + edgepairs_((31,_32),_(5,_6))
 - nodepairs_(31,_5) - nodepairs_(31,_6) <= 0
_C1901: edgepairs_((30,_31),_(6,_7)) + edgepairs_((31,_32),_(6,_7))
 - nodepairs_(31,_6) - nodepairs_(31,_7) <= 0
_C1902: edgepairs_((30,_31),_(7,_8)) + edgepairs_((31,_32),_(7,_8))
 - nodepairs_(31,_7) - nodepairs_(31,_8) <= 0
_C1903: edgepairs_((30,_31),_(8,_9)) + edgepairs_((31,_32),_(8,_9))
 - nodepairs_(31,_8) - nodepairs_(31,_9) <= 0
_C1904: edgepairs_((30,_31),_(9,_10)) + edgepairs_((31,_32),_(9,_10))
 - nodepairs_(31,_10) - nodepairs_(31,_9) <= 0
_C1905: edgepairs_((30,_31),_(10,_11)) + edgepairs_((31,_32),_(10,_11))
 - nodepairs_(31,_10) - nodepairs_(31,_11) <= 0
_C1906: edgepairs_((30,_31),_(11,_12)) + edgepairs_((31,_32),_(11,_12))
 - nodepairs_(31,_11) - nodepairs_(31,_12) <= 0
_C1907: edgepairs_((30,_31),_(12,_13)) + edgepairs_((31,_32),_(12,_13))
 - nodepairs_(31,_12) - nodepairs_(31,_13) <= 0
_C1908: edgepairs_((30,_31),_(13,_14)) + edgepairs_((31,_32),_(13,_14))
 - nodepairs_(31,_13) - nodepairs_(31,_14) <= 0
_C1909: edgepairs_((30,_31),_(14,_15)) + edgepairs_((31,_32),_(14,_15))
 - nodepairs_(31,_14) - nodepairs_(31,_15) <= 0
_C191: edgepairs_((0,_1),_(25,_26)) + edgepairs_((0,_26),_(25,_26))
 + edgepairs_((10,_11),_(25,_26)) + edgepairs_((11,_12),_(25,_26))
 + edgepairs_((12,_13),_(25,_26)) + edgepairs_((13,_14),_(25,_26))
 + edgepairs_((14,_15),_(25,_26)) + edgepairs_((15,_16),_(25,_26))
 + edgepairs_((16,_17),_(25,_26)) + edgepairs_((17,_18),_(25,_26))
 + edgepairs_((18,_19),_(25,_26)) + edgepairs_((19,_20),_(25,_26))
 + edgepairs_((20,_21),_(25,_26)) + edgepairs_((21,_22),_(25,_26))
 + edgepairs_((22,_23),_(25,_26)) + edgepairs_((23,_24),_(25,_26))
 + edgepairs_((23,_25),_(25,_26)) + edgepairs_((28,_30),_(25,_26))
 + edgepairs_((3,_5),_(25,_26)) + edgepairs_((30,_31),_(25,_26))
 + edgepairs_((31,_32),_(25,_26)) + edgepairs_((32,_33),_(25,_26))
 + edgepairs_((33,_34),_(25,_26)) + edgepairs_((34,_35),_(25,_26))
 + edgepairs_((35,_36),_(25,_26)) + edgepairs_((36,_37),_(25,_26))
 + edgepairs_((37,_38),_(25,_26)) + edgepairs_((38,_39),_(25,_26))
 + edgepairs_((39,_40),_(25,_26)) + edgepairs_((40,_41),_(25,_26))
 + edgepairs_((40,_42),_(25,_26)) + edgepairs_((44,_46),_(25,_26))
 + edgepairs_((46,_47),_(25,_26)) + edgepairs_((47,_48),_(25,_26))
 + edgepairs_((48,_49),_(25,_26)) + edgepairs_((49,_50),_(25,_26))
 + edgepairs_((5,_6),_(25,_26)) + edgepairs_((50,_51),_(25,_26))
 + edgepairs_((51,_52),_(25,_26)) + edgepairs_((52,_53),_(25,_26))
 + edgepairs_((53,_54),_(25,_26)) + edgepairs_((6,_7),_(25,_26))
 + edgepairs_((7,_8),_(25,_26)) + edgepairs_((8,_9),_(25,_26))
 + edgepairs_((9,_10),_(25,_26)) + edgepairs_(_1,_(25,_26)) = 1
_C1910: edgepairs_((30,_31),_(15,_16)) + edgepairs_((31,_32),_(15,_16))
 - nodepairs_(31,_15) - nodepairs_(31,_16) <= 0
_C1911: - nodepairs_(31,_17) <= 0
_C1912: - nodepairs_(31,_19) <= 0
_C1913: - nodepairs_(31,_19) <= 0
_C1914: edgepairs_((30,_31),_(19,_21)) + edgepairs_((31,_32),_(19,_21))
 - nodepairs_(31,_19) - nodepairs_(31,_21) <= 0
_C1915: edgepairs_((30,_31),_(21,_22)) + edgepairs_((31,_32),_(21,_22))
 - nodepairs_(31,_21) - nodepairs_(31,_22) <= 0
_C1916: edgepairs_((30,_31),_(22,_23)) + edgepairs_((31,_32),_(22,_23))
 - nodepairs_(31,_22) - nodepairs_(31,_23) <= 0
_C1917: edgepairs_((30,_31),_(23,_24)) + edgepairs_((31,_32),_(23,_24))
 - nodepairs_(31,_23) - nodepairs_(31,_24) <= 0
_C1918: edgepairs_((30,_31),_(24,_25)) + edgepairs_((31,_32),_(24,_25))
 - nodepairs_(31,_24) - nodepairs_(31,_25) <= 0
_C1919: edgepairs_((30,_31),_(25,_26)) + edgepairs_((31,_32),_(25,_26))
 - nodepairs_(31,_25) - nodepairs_(31,_26) <= 0
_C192: edgepairs_((0,_1),_(26,_27)) + edgepairs_((0,_26),_(26,_27))
 + edgepairs_((10,_11),_(26,_27)) + edgepairs_((11,_12),_(26,_27))
 + edgepairs_((12,_13),_(26,_27)) + edgepairs_((13,_14),_(26,_27))
 + edgepairs_((14,_15),_(26,_27)) + edgepairs_((15,_16),_(26,_27))
 + edgepairs_((16,_17),_(26,_27)) + edgepairs_((17,_18),_(26,_27))
 + edgepairs_((18,_19),_(26,_27)) + edgepairs_((19,_20),_(26,_27))
 + edgepairs_((20,_21),_(26,_27)) + edgepairs_((21,_22),_(26,_27))
 + edgepairs_((22,_23),_(26,_27)) + edgepairs_((23,_24),_(26,_27))
 + edgepairs_((23,_25),_(26,_27)) + edgepairs_((28,_30),_(26,_27))
 + edgepairs_((3,_5),_(26,_27)) + edgepairs_((30,_31),_(26,_27))
 + edgepairs_((31,_32),_(26,_27)) + edgepairs_((32,_33),_(26,_27))
 + edgepairs_((33,_34),_(26,_27)) + edgepairs_((34,_35),_(26,_27))
 + edgepairs_((35,_36),_(26,_27)) + edgepairs_((36,_37),_(26,_27))
 + edgepairs_((37,_38),_(26,_27)) + edgepairs_((38,_39),_(26,_27))
 + edgepairs_((39,_40),_(26,_27)) + edgepairs_((40,_41),_(26,_27))
 + edgepairs_((40,_42),_(26,_27)) + edgepairs_((44,_46),_(26,_27))
 + edgepairs_((46,_47),_(26,_27)) + edgepairs_((47,_48),_(26,_27))
 + edgepairs_((48,_49),_(26,_27)) + edgepairs_((49,_50),_(26,_27))
 + edgepairs_((5,_6),_(26,_27)) + edgepairs_((50,_51),_(26,_27))
 + edgepairs_((51,_52),_(26,_27)) + edgepairs_((52,_53),_(26,_27))
 + edgepairs_((53,_54),_(26,_27)) + edgepairs_((6,_7),_(26,_27))
 + edgepairs_((7,_8),_(26,_27)) + edgepairs_((8,_9),_(26,_27))
 + edgepairs_((9,_10),_(26,_27)) + edgepairs_(_1,_(26,_27)) = 1
_C1920: edgepairs_((30,_31),_(26,_27)) + edgepairs_((31,_32),_(26,_27))
 - nodepairs_(31,_26) - nodepairs_(31,_27) <= 0
_C1921: edgepairs_((30,_31),_(27,_28)) + edgepairs_((31,_32),_(27,_28))
 - nodepairs_(31,_27) - nodepairs_(31,_28) <= 0
_C1922: edgepairs_((30,_31),_(28,_29)) + edgepairs_((31,_32),_(28,_29))
 - nodepairs_(31,_28) - nodepairs_(31,_29) <= 0
_C1923: edgepairs_((30,_31),_(29,_30)) + edgepairs_((31,_32),_(29,_30))
 - nodepairs_(31,_29) - nodepairs_(31,_30) <= 0
_C1924: edgepairs_((30,_31),_(30,_31)) + edgepairs_((31,_32),_(30,_31))
 - nodepairs_(31,_30) - nodepairs_(31,_31) <= 0
_C1925: edgepairs_((30,_31),_(31,_32)) + edgepairs_((31,_32),_(31,_32))
 - nodepairs_(31,_31) - nodepairs_(31,_32) <= 0
_C1926: edgepairs_((30,_31),_(32,_33)) + edgepairs_((31,_32),_(32,_33))
 - nodepairs_(31,_32) - nodepairs_(31,_33) <= 0
_C1927: edgepairs_((30,_31),_(33,_34)) + edgepairs_((31,_32),_(33,_34))
 - nodepairs_(31,_33) - nodepairs_(31,_34) <= 0
_C1928: edgepairs_((30,_31),_(34,_35)) + edgepairs_((31,_32),_(34,_35))
 - nodepairs_(31,_34) - nodepairs_(31,_35) <= 0
_C1929: edgepairs_((30,_31),_(35,_36)) + edgepairs_((31,_32),_(35,_36))
 - nodepairs_(31,_35) - nodepairs_(31,_36) <= 0
_C193: edgepairs_((0,_1),_(27,_28)) + edgepairs_((0,_26),_(27,_28))
 + edgepairs_((10,_11),_(27,_28)) + edgepairs_((11,_12),_(27,_28))
 + edgepairs_((12,_13),_(27,_28)) + edgepairs_((13,_14),_(27,_28))
 + edgepairs_((14,_15),_(27,_28)) + edgepairs_((15,_16),_(27,_28))
 + edgepairs_((16,_17),_(27,_28)) + edgepairs_((17,_18),_(27,_28))
 + edgepairs_((18,_19),_(27,_28)) + edgepairs_((19,_20),_(27,_28))
 + edgepairs_((20,_21),_(27,_28)) + edgepairs_((21,_22),_(27,_28))
 + edgepairs_((22,_23),_(27,_28)) + edgepairs_((23,_24),_(27,_28))
 + edgepairs_((23,_25),_(27,_28)) + edgepairs_((28,_30),_(27,_28))
 + edgepairs_((3,_5),_(27,_28)) + edgepairs_((30,_31),_(27,_28))
 + edgepairs_((31,_32),_(27,_28)) + edgepairs_((32,_33),_(27,_28))
 + edgepairs_((33,_34),_(27,_28)) + edgepairs_((34,_35),_(27,_28))
 + edgepairs_((35,_36),_(27,_28)) + edgepairs_((36,_37),_(27,_28))
 + edgepairs_((37,_38),_(27,_28)) + edgepairs_((38,_39),_(27,_28))
 + edgepairs_((39,_40),_(27,_28)) + edgepairs_((40,_41),_(27,_28))
 + edgepairs_((40,_42),_(27,_28)) + edgepairs_((44,_46),_(27,_28))
 + edgepairs_((46,_47),_(27,_28)) + edgepairs_((47,_48),_(27,_28))
 + edgepairs_((48,_49),_(27,_28)) + edgepairs_((49,_50),_(27,_28))
 + edgepairs_((5,_6),_(27,_28)) + edgepairs_((50,_51),_(27,_28))
 + edgepairs_((51,_52),_(27,_28)) + edgepairs_((52,_53),_(27,_28))
 + edgepairs_((53,_54),_(27,_28)) + edgepairs_((6,_7),_(27,_28))
 + edgepairs_((7,_8),_(27,_28)) + edgepairs_((8,_9),_(27,_28))
 + edgepairs_((9,_10),_(27,_28)) + edgepairs_(_1,_(27,_28)) = 1
_C1930: edgepairs_((30,_31),_(36,_37)) + edgepairs_((31,_32),_(36,_37))
 - nodepairs_(31,_36) - nodepairs_(31,_37) <= 0
_C1931: edgepairs_((30,_31),_(37,_38)) + edgepairs_((31,_32),_(37,_38))
 - nodepairs_(31,_37) - nodepairs_(31,_38) <= 0
_C1932: edgepairs_((30,_31),_(37,_39)) + edgepairs_((31,_32),_(37,_39))
 - nodepairs_(31,_37) - nodepairs_(31,_39) <= 0
_C1933: edgepairs_((30,_31),_(39,_40)) + edgepairs_((31,_32),_(39,_40))
 - nodepairs_(31,_39) - nodepairs_(31,_40) <= 0
_C1934: - nodepairs_(31,_42) <= 0
_C1935: - nodepairs_(31,_42) <= 0
_C1936: edgepairs_((30,_31),_(42,_44)) + edgepairs_((31,_32),_(42,_44))
 - nodepairs_(31,_42) - nodepairs_(31,_44) <= 0
_C1937: edgepairs_((30,_31),_(44,_45)) + edgepairs_((31,_32),_(44,_45))
 - nodepairs_(31,_44) - nodepairs_(31,_45) <= 0
_C1938: edgepairs_((30,_31),_(45,_46)) + edgepairs_((31,_32),_(45,_46))
 - nodepairs_(31,_45) - nodepairs_(31,_46) <= 0
_C1939: edgepairs_((30,_31),_(46,_47)) + edgepairs_((31,_32),_(46,_47))
 - nodepairs_(31,_46) - nodepairs_(31,_47) <= 0
_C194: edgepairs_((0,_1),_(28,_29)) + edgepairs_((0,_26),_(28,_29))
 + edgepairs_((10,_11),_(28,_29)) + edgepairs_((11,_12),_(28,_29))
 + edgepairs_((12,_13),_(28,_29)) + edgepairs_((13,_14),_(28,_29))
 + edgepairs_((14,_15),_(28,_29)) + edgepairs_((15,_16),_(28,_29))
 + edgepairs_((16,_17),_(28,_29)) + edgepairs_((17,_18),_(28,_29))
 + edgepairs_((18,_19),_(28,_29)) + edgepairs_((19,_20),_(28,_29))
 + edgepairs_((20,_21),_(28,_29)) + edgepairs_((21,_22),_(28,_29))
 + edgepairs_((22,_23),_(28,_29)) + edgepairs_((23,_24),_(28,_29))
 + edgepairs_((23,_25),_(28,_29)) + edgepairs_((28,_30),_(28,_29))
 + edgepairs_((3,_5),_(28,_29)) + edgepairs_((30,_31),_(28,_29))
 + edgepairs_((31,_32),_(28,_29)) + edgepairs_((32,_33),_(28,_29))
 + edgepairs_((33,_34),_(28,_29)) + edgepairs_((34,_35),_(28,_29))
 + edgepairs_((35,_36),_(28,_29)) + edgepairs_((36,_37),_(28,_29))
 + edgepairs_((37,_38),_(28,_29)) + edgepairs_((38,_39),_(28,_29))
 + edgepairs_((39,_40),_(28,_29)) + edgepairs_((40,_41),_(28,_29))
 + edgepairs_((40,_42),_(28,_29)) + edgepairs_((44,_46),_(28,_29))
 + edgepairs_((46,_47),_(28,_29)) + edgepairs_((47,_48),_(28,_29))
 + edgepairs_((48,_49),_(28,_29)) + edgepairs_((49,_50),_(28,_29))
 + edgepairs_((5,_6),_(28,_29)) + edgepairs_((50,_51),_(28,_29))
 + edgepairs_((51,_52),_(28,_29)) + edgepairs_((52,_53),_(28,_29))
 + edgepairs_((53,_54),_(28,_29)) + edgepairs_((6,_7),_(28,_29))
 + edgepairs_((7,_8),_(28,_29)) + edgepairs_((8,_9),_(28,_29))
 + edgepairs_((9,_10),_(28,_29)) + edgepairs_(_1,_(28,_29)) = 1
_C1940: edgepairs_((30,_31),_(47,_48)) + edgepairs_((31,_32),_(47,_48))
 - nodepairs_(31,_47) - nodepairs_(31,_48) <= 0
_C1941: edgepairs_((30,_31),_(48,_49)) + edgepairs_((31,_32),_(48,_49))
 - nodepairs_(31,_48) - nodepairs_(31,_49) <= 0
_C1942: edgepairs_((30,_31),_(49,_50)) + edgepairs_((31,_32),_(49,_50))
 - nodepairs_(31,_49) - nodepairs_(31,_50) <= 0
_C1943: edgepairs_((30,_31),_(50,_51)) + edgepairs_((31,_32),_(50,_51))
 - nodepairs_(31,_50) - nodepairs_(31,_51) <= 0
_C1944: edgepairs_((30,_31),_(51,_52)) + edgepairs_((31,_32),_(51,_52))
 - nodepairs_(31,_51) - nodepairs_(31,_52) <= 0
_C1945: edgepairs_((30,_31),_(52,_53)) + edgepairs_((31,_32),_(52,_53))
 - nodepairs_(31,_52) - nodepairs_(31,_53) <= 0
_C1946: edgepairs_((30,_31),_(53,_54)) + edgepairs_((31,_32),_(53,_54))
 - nodepairs_(31,_53) - nodepairs_(31,_54) <= 0
_C1947: edgepairs_((31,_32),_(0,_1)) + edgepairs_((32,_33),_(0,_1))
 - nodepairs_(32,_0) - nodepairs_(32,_1) <= 0
_C1948: edgepairs_((31,_32),_(0,_17)) + edgepairs_((32,_33),_(0,_17))
 - nodepairs_(32,_0) - nodepairs_(32,_17) <= 0
_C1949: - nodepairs_(32,_0) <= 0
_C195: edgepairs_((0,_1),_(29,_30)) + edgepairs_((0,_26),_(29,_30))
 + edgepairs_((10,_11),_(29,_30)) + edgepairs_((11,_12),_(29,_30))
 + edgepairs_((12,_13),_(29,_30)) + edgepairs_((13,_14),_(29,_30))
 + edgepairs_((14,_15),_(29,_30)) + edgepairs_((15,_16),_(29,_30))
 + edgepairs_((16,_17),_(29,_30)) + edgepairs_((17,_18),_(29,_30))
 + edgepairs_((18,_19),_(29,_30)) + edgepairs_((19,_20),_(29,_30))
 + edgepairs_((20,_21),_(29,_30)) + edgepairs_((21,_22),_(29,_30))
 + edgepairs_((22,_23),_(29,_30)) + edgepairs_((23,_24),_(29,_30))
 + edgepairs_((23,_25),_(29,_30)) + edgepairs_((28,_30),_(29,_30))
 + edgepairs_((3,_5),_(29,_30)) + edgepairs_((30,_31),_(29,_30))
 + edgepairs_((31,_32),_(29,_30)) + edgepairs_((32,_33),_(29,_30))
 + edgepairs_((33,_34),_(29,_30)) + edgepairs_((34,_35),_(29,_30))
 + edgepairs_((35,_36),_(29,_30)) + edgepairs_((36,_37),_(29,_30))
 + edgepairs_((37,_38),_(29,_30)) + edgepairs_((38,_39),_(29,_30))
 + edgepairs_((39,_40),_(29,_30)) + edgepairs_((40,_41),_(29,_30))
 + edgepairs_((40,_42),_(29,_30)) + edgepairs_((44,_46),_(29,_30))
 + edgepairs_((46,_47),_(29,_30)) + edgepairs_((47,_48),_(29,_30))
 + edgepairs_((48,_49),_(29,_30)) + edgepairs_((49,_50),_(29,_30))
 + edgepairs_((5,_6),_(29,_30)) + edgepairs_((50,_51),_(29,_30))
 + edgepairs_((51,_52),_(29,_30)) + edgepairs_((52,_53),_(29,_30))
 + edgepairs_((53,_54),_(29,_30)) + edgepairs_((6,_7),_(29,_30))
 + edgepairs_((7,_8),_(29,_30)) + edgepairs_((8,_9),_(29,_30))
 + edgepairs_((9,_10),_(29,_30)) + edgepairs_(_1,_(29,_30)) = 1
_C1950: - nodepairs_(32,_1) <= 0
_C1951: - nodepairs_(32,_3) <= 0
_C1952: - nodepairs_(32,_3) <= 0
_C1953: edgepairs_((31,_32),_(3,_5)) + edgepairs_((32,_33),_(3,_5))
 - nodepairs_(32,_3) - nodepairs_(32,_5) <= 0
_C1954: edgepairs_((31,_32),_(5,_6)) + edgepairs_((32,_33),_(5,_6))
 - nodepairs_(32,_5) - nodepairs_(32,_6) <= 0
_C1955: edgepairs_((31,_32),_(6,_7)) + edgepairs_((32,_33),_(6,_7))
 - nodepairs_(32,_6) - nodepairs_(32,_7) <= 0
_C1956: edgepairs_((31,_32),_(7,_8)) + edgepairs_((32,_33),_(7,_8))
 - nodepairs_(32,_7) - nodepairs_(32,_8) <= 0
_C1957: edgepairs_((31,_32),_(8,_9)) + edgepairs_((32,_33),_(8,_9))
 - nodepairs_(32,_8) - nodepairs_(32,_9) <= 0
_C1958: edgepairs_((31,_32),_(9,_10)) + edgepairs_((32,_33),_(9,_10))
 - nodepairs_(32,_10) - nodepairs_(32,_9) <= 0
_C1959: edgepairs_((31,_32),_(10,_11)) + edgepairs_((32,_33),_(10,_11))
 - nodepairs_(32,_10) - nodepairs_(32,_11) <= 0
_C196: edgepairs_((0,_1),_(30,_31)) + edgepairs_((0,_26),_(30,_31))
 + edgepairs_((10,_11),_(30,_31)) + edgepairs_((11,_12),_(30,_31))
 + edgepairs_((12,_13),_(30,_31)) + edgepairs_((13,_14),_(30,_31))
 + edgepairs_((14,_15),_(30,_31)) + edgepairs_((15,_16),_(30,_31))
 + edgepairs_((16,_17),_(30,_31)) + edgepairs_((17,_18),_(30,_31))
 + edgepairs_((18,_19),_(30,_31)) + edgepairs_((19,_20),_(30,_31))
 + edgepairs_((20,_21),_(30,_31)) + edgepairs_((21,_22),_(30,_31))
 + edgepairs_((22,_23),_(30,_31)) + edgepairs_((23,_24),_(30,_31))
 + edgepairs_((23,_25),_(30,_31)) + edgepairs_((28,_30),_(30,_31))
 + edgepairs_((3,_5),_(30,_31)) + edgepairs_((30,_31),_(30,_31))
 + edgepairs_((31,_32),_(30,_31)) + edgepairs_((32,_33),_(30,_31))
 + edgepairs_((33,_34),_(30,_31)) + edgepairs_((34,_35),_(30,_31))
 + edgepairs_((35,_36),_(30,_31)) + edgepairs_((36,_37),_(30,_31))
 + edgepairs_((37,_38),_(30,_31)) + edgepairs_((38,_39),_(30,_31))
 + edgepairs_((39,_40),_(30,_31)) + edgepairs_((40,_41),_(30,_31))
 + edgepairs_((40,_42),_(30,_31)) + edgepairs_((44,_46),_(30,_31))
 + edgepairs_((46,_47),_(30,_31)) + edgepairs_((47,_48),_(30,_31))
 + edgepairs_((48,_49),_(30,_31)) + edgepairs_((49,_50),_(30,_31))
 + edgepairs_((5,_6),_(30,_31)) + edgepairs_((50,_51),_(30,_31))
 + edgepairs_((51,_52),_(30,_31)) + edgepairs_((52,_53),_(30,_31))
 + edgepairs_((53,_54),_(30,_31)) + edgepairs_((6,_7),_(30,_31))
 + edgepairs_((7,_8),_(30,_31)) + edgepairs_((8,_9),_(30,_31))
 + edgepairs_((9,_10),_(30,_31)) + edgepairs_(_1,_(30,_31)) = 1
_C1960: edgepairs_((31,_32),_(11,_12)) + edgepairs_((32,_33),_(11,_12))
 - nodepairs_(32,_11) - nodepairs_(32,_12) <= 0
_C1961: edgepairs_((31,_32),_(12,_13)) + edgepairs_((32,_33),_(12,_13))
 - nodepairs_(32,_12) - nodepairs_(32,_13) <= 0
_C1962: edgepairs_((31,_32),_(13,_14)) + edgepairs_((32,_33),_(13,_14))
 - nodepairs_(32,_13) - nodepairs_(32,_14) <= 0
_C1963: edgepairs_((31,_32),_(14,_15)) + edgepairs_((32,_33),_(14,_15))
 - nodepairs_(32,_14) - nodepairs_(32,_15) <= 0
_C1964: edgepairs_((31,_32),_(15,_16)) + edgepairs_((32,_33),_(15,_16))
 - nodepairs_(32,_15) - nodepairs_(32,_16) <= 0
_C1965: - nodepairs_(32,_17) <= 0
_C1966: - nodepairs_(32,_19) <= 0
_C1967: - nodepairs_(32,_19) <= 0
_C1968: edgepairs_((31,_32),_(19,_21)) + edgepairs_((32,_33),_(19,_21))
 - nodepairs_(32,_19) - nodepairs_(32,_21) <= 0
_C1969: edgepairs_((31,_32),_(21,_22)) + edgepairs_((32,_33),_(21,_22))
 - nodepairs_(32,_21) - nodepairs_(32,_22) <= 0
_C197: edgepairs_((0,_1),_(31,_32)) + edgepairs_((0,_26),_(31,_32))
 + edgepairs_((10,_11),_(31,_32)) + edgepairs_((11,_12),_(31,_32))
 + edgepairs_((12,_13),_(31,_32)) + edgepairs_((13,_14),_(31,_32))
 + edgepairs_((14,_15),_(31,_32)) + edgepairs_((15,_16),_(31,_32))
 + edgepairs_((16,_17),_(31,_32)) + edgepairs_((17,_18),_(31,_32))
 + edgepairs_((18,_19),_(31,_32)) + edgepairs_((19,_20),_(31,_32))
 + edgepairs_((20,_21),_(31,_32)) + edgepairs_((21,_22),_(31,_32))
 + edgepairs_((22,_23),_(31,_32)) + edgepairs_((23,_24),_(31,_32))
 + edgepairs_((23,_25),_(31,_32)) + edgepairs_((28,_30),_(31,_32))
 + edgepairs_((3,_5),_(31,_32)) + edgepairs_((30,_31),_(31,_32))
 + edgepairs_((31,_32),_(31,_32)) + edgepairs_((32,_33),_(31,_32))
 + edgepairs_((33,_34),_(31,_32)) + edgepairs_((34,_35),_(31,_32))
 + edgepairs_((35,_36),_(31,_32)) + edgepairs_((36,_37),_(31,_32))
 + edgepairs_((37,_38),_(31,_32)) + edgepairs_((38,_39),_(31,_32))
 + edgepairs_((39,_40),_(31,_32)) + edgepairs_((40,_41),_(31,_32))
 + edgepairs_((40,_42),_(31,_32)) + edgepairs_((44,_46),_(31,_32))
 + edgepairs_((46,_47),_(31,_32)) + edgepairs_((47,_48),_(31,_32))
 + edgepairs_((48,_49),_(31,_32)) + edgepairs_((49,_50),_(31,_32))
 + edgepairs_((5,_6),_(31,_32)) + edgepairs_((50,_51),_(31,_32))
 + edgepairs_((51,_52),_(31,_32)) + edgepairs_((52,_53),_(31,_32))
 + edgepairs_((53,_54),_(31,_32)) + edgepairs_((6,_7),_(31,_32))
 + edgepairs_((7,_8),_(31,_32)) + edgepairs_((8,_9),_(31,_32))
 + edgepairs_((9,_10),_(31,_32)) + edgepairs_(_1,_(31,_32)) = 1
_C1970: edgepairs_((31,_32),_(22,_23)) + edgepairs_((32,_33),_(22,_23))
 - nodepairs_(32,_22) - nodepairs_(32,_23) <= 0
_C1971: edgepairs_((31,_32),_(23,_24)) + edgepairs_((32,_33),_(23,_24))
 - nodepairs_(32,_23) - nodepairs_(32,_24) <= 0
_C1972: edgepairs_((31,_32),_(24,_25)) + edgepairs_((32,_33),_(24,_25))
 - nodepairs_(32,_24) - nodepairs_(32,_25) <= 0
_C1973: edgepairs_((31,_32),_(25,_26)) + edgepairs_((32,_33),_(25,_26))
 - nodepairs_(32,_25) - nodepairs_(32,_26) <= 0
_C1974: edgepairs_((31,_32),_(26,_27)) + edgepairs_((32,_33),_(26,_27))
 - nodepairs_(32,_26) - nodepairs_(32,_27) <= 0
_C1975: edgepairs_((31,_32),_(27,_28)) + edgepairs_((32,_33),_(27,_28))
 - nodepairs_(32,_27) - nodepairs_(32,_28) <= 0
_C1976: edgepairs_((31,_32),_(28,_29)) + edgepairs_((32,_33),_(28,_29))
 - nodepairs_(32,_28) - nodepairs_(32,_29) <= 0
_C1977: edgepairs_((31,_32),_(29,_30)) + edgepairs_((32,_33),_(29,_30))
 - nodepairs_(32,_29) - nodepairs_(32,_30) <= 0
_C1978: edgepairs_((31,_32),_(30,_31)) + edgepairs_((32,_33),_(30,_31))
 - nodepairs_(32,_30) - nodepairs_(32,_31) <= 0
_C1979: edgepairs_((31,_32),_(31,_32)) + edgepairs_((32,_33),_(31,_32))
 - nodepairs_(32,_31) - nodepairs_(32,_32) <= 0
_C198: edgepairs_((0,_1),_(32,_33)) + edgepairs_((0,_26),_(32,_33))
 + edgepairs_((10,_11),_(32,_33)) + edgepairs_((11,_12),_(32,_33))
 + edgepairs_((12,_13),_(32,_33)) + edgepairs_((13,_14),_(32,_33))
 + edgepairs_((14,_15),_(32,_33)) + edgepairs_((15,_16),_(32,_33))
 + edgepairs_((16,_17),_(32,_33)) + edgepairs_((17,_18),_(32,_33))
 + edgepairs_((18,_19),_(32,_33)) + edgepairs_((19,_20),_(32,_33))
 + edgepairs_((20,_21),_(32,_33)) + edgepairs_((21,_22),_(32,_33))
 + edgepairs_((22,_23),_(32,_33)) + edgepairs_((23,_24),_(32,_33))
 + edgepairs_((23,_25),_(32,_33)) + edgepairs_((28,_30),_(32,_33))
 + edgepairs_((3,_5),_(32,_33)) + edgepairs_((30,_31),_(32,_33))
 + edgepairs_((31,_32),_(32,_33)) + edgepairs_((32,_33),_(32,_33))
 + edgepairs_((33,_34),_(32,_33)) + edgepairs_((34,_35),_(32,_33))
 + edgepairs_((35,_36),_(32,_33)) + edgepairs_((36,_37),_(32,_33))
 + edgepairs_((37,_38),_(32,_33)) + edgepairs_((38,_39),_(32,_33))
 + edgepairs_((39,_40),_(32,_33)) + edgepairs_((40,_41),_(32,_33))
 + edgepairs_((40,_42),_(32,_33)) + edgepairs_((44,_46),_(32,_33))
 + edgepairs_((46,_47),_(32,_33)) + edgepairs_((47,_48),_(32,_33))
 + edgepairs_((48,_49),_(32,_33)) + edgepairs_((49,_50),_(32,_33))
 + edgepairs_((5,_6),_(32,_33)) + edgepairs_((50,_51),_(32,_33))
 + edgepairs_((51,_52),_(32,_33)) + edgepairs_((52,_53),_(32,_33))
 + edgepairs_((53,_54),_(32,_33)) + edgepairs_((6,_7),_(32,_33))
 + edgepairs_((7,_8),_(32,_33)) + edgepairs_((8,_9),_(32,_33))
 + edgepairs_((9,_10),_(32,_33)) + edgepairs_(_1,_(32,_33)) = 1
_C1980: edgepairs_((31,_32),_(32,_33)) + edgepairs_((32,_33),_(32,_33))
 - nodepairs_(32,_32) - nodepairs_(32,_33) <= 0
_C1981: edgepairs_((31,_32),_(33,_34)) + edgepairs_((32,_33),_(33,_34))
 - nodepairs_(32,_33) - nodepairs_(32,_34) <= 0
_C1982: edgepairs_((31,_32),_(34,_35)) + edgepairs_((32,_33),_(34,_35))
 - nodepairs_(32,_34) - nodepairs_(32,_35) <= 0
_C1983: edgepairs_((31,_32),_(35,_36)) + edgepairs_((32,_33),_(35,_36))
 - nodepairs_(32,_35) - nodepairs_(32,_36) <= 0
_C1984: edgepairs_((31,_32),_(36,_37)) + edgepairs_((32,_33),_(36,_37))
 - nodepairs_(32,_36) - nodepairs_(32,_37) <= 0
_C1985: edgepairs_((31,_32),_(37,_38)) + edgepairs_((32,_33),_(37,_38))
 - nodepairs_(32,_37) - nodepairs_(32,_38) <= 0
_C1986: edgepairs_((31,_32),_(37,_39)) + edgepairs_((32,_33),_(37,_39))
 - nodepairs_(32,_37) - nodepairs_(32,_39) <= 0
_C1987: edgepairs_((31,_32),_(39,_40)) + edgepairs_((32,_33),_(39,_40))
 - nodepairs_(32,_39) - nodepairs_(32,_40) <= 0
_C1988: - nodepairs_(32,_42) <= 0
_C1989: - nodepairs_(32,_42) <= 0
_C199: edgepairs_((0,_1),_(33,_34)) + edgepairs_((0,_26),_(33,_34))
 + edgepairs_((10,_11),_(33,_34)) + edgepairs_((11,_12),_(33,_34))
 + edgepairs_((12,_13),_(33,_34)) + edgepairs_((13,_14),_(33,_34))
 + edgepairs_((14,_15),_(33,_34)) + edgepairs_((15,_16),_(33,_34))
 + edgepairs_((16,_17),_(33,_34)) + edgepairs_((17,_18),_(33,_34))
 + edgepairs_((18,_19),_(33,_34)) + edgepairs_((19,_20),_(33,_34))
 + edgepairs_((20,_21),_(33,_34)) + edgepairs_((21,_22),_(33,_34))
 + edgepairs_((22,_23),_(33,_34)) + edgepairs_((23,_24),_(33,_34))
 + edgepairs_((23,_25),_(33,_34)) + edgepairs_((28,_30),_(33,_34))
 + edgepairs_((3,_5),_(33,_34)) + edgepairs_((30,_31),_(33,_34))
 + edgepairs_((31,_32),_(33,_34)) + edgepairs_((32,_33),_(33,_34))
 + edgepairs_((33,_34),_(33,_34)) + edgepairs_((34,_35),_(33,_34))
 + edgepairs_((35,_36),_(33,_34)) + edgepairs_((36,_37),_(33,_34))
 + edgepairs_((37,_38),_(33,_34)) + edgepairs_((38,_39),_(33,_34))
 + edgepairs_((39,_40),_(33,_34)) + edgepairs_((40,_41),_(33,_34))
 + edgepairs_((40,_42),_(33,_34)) + edgepairs_((44,_46),_(33,_34))
 + edgepairs_((46,_47),_(33,_34)) + edgepairs_((47,_48),_(33,_34))
 + edgepairs_((48,_49),_(33,_34)) + edgepairs_((49,_50),_(33,_34))
 + edgepairs_((5,_6),_(33,_34)) + edgepairs_((50,_51),_(33,_34))
 + edgepairs_((51,_52),_(33,_34)) + edgepairs_((52,_53),_(33,_34))
 + edgepairs_((53,_54),_(33,_34)) + edgepairs_((6,_7),_(33,_34))
 + edgepairs_((7,_8),_(33,_34)) + edgepairs_((8,_9),_(33,_34))
 + edgepairs_((9,_10),_(33,_34)) + edgepairs_(_1,_(33,_34)) = 1
_C1990: edgepairs_((31,_32),_(42,_44)) + edgepairs_((32,_33),_(42,_44))
 - nodepairs_(32,_42) - nodepairs_(32,_44) <= 0
_C1991: edgepairs_((31,_32),_(44,_45)) + edgepairs_((32,_33),_(44,_45))
 - nodepairs_(32,_44) - nodepairs_(32,_45) <= 0
_C1992: edgepairs_((31,_32),_(45,_46)) + edgepairs_((32,_33),_(45,_46))
 - nodepairs_(32,_45) - nodepairs_(32,_46) <= 0
_C1993: edgepairs_((31,_32),_(46,_47)) + edgepairs_((32,_33),_(46,_47))
 - nodepairs_(32,_46) - nodepairs_(32,_47) <= 0
_C1994: edgepairs_((31,_32),_(47,_48)) + edgepairs_((32,_33),_(47,_48))
 - nodepairs_(32,_47) - nodepairs_(32,_48) <= 0
_C1995: edgepairs_((31,_32),_(48,_49)) + edgepairs_((32,_33),_(48,_49))
 - nodepairs_(32,_48) - nodepairs_(32,_49) <= 0
_C1996: edgepairs_((31,_32),_(49,_50)) + edgepairs_((32,_33),_(49,_50))
 - nodepairs_(32,_49) - nodepairs_(32,_50) <= 0
_C1997: edgepairs_((31,_32),_(50,_51)) + edgepairs_((32,_33),_(50,_51))
 - nodepairs_(32,_50) - nodepairs_(32,_51) <= 0
_C1998: edgepairs_((31,_32),_(51,_52)) + edgepairs_((32,_33),_(51,_52))
 - nodepairs_(32,_51) - nodepairs_(32,_52) <= 0
_C1999: edgepairs_((31,_32),_(52,_53)) + edgepairs_((32,_33),_(52,_53))
 - nodepairs_(32,_52) - nodepairs_(32,_53) <= 0
_C2: nodepairs_(1,_0) + nodepairs_(1,_1) + nodepairs_(1,_10)
 + nodepairs_(1,_11) + nodepairs_(1,_12) + nodepairs_(1,_13)
 + nodepairs_(1,_14) + nodepairs_(1,_15) + nodepairs_(1,_16)
 + nodepairs_(1,_17) + nodepairs_(1,_19) + nodepairs_(1,_21)
 + nodepairs_(1,_22) + nodepairs_(1,_23) + nodepairs_(1,_24)
 + nodepairs_(1,_25) + nodepairs_(1,_26) + nodepairs_(1,_27)
 + nodepairs_(1,_28) + nodepairs_(1,_29) + nodepairs_(1,_3)
 + nodepairs_(1,_30) + nodepairs_(1,_31) + nodepairs_(1,_32)
 + nodepairs_(1,_33) + nodepairs_(1,_34) + nodepairs_(1,_35)
 + nodepairs_(1,_36) + nodepairs_(1,_37) + nodepairs_(1,_38)
 + nodepairs_(1,_39) + nodepairs_(1,_40) + nodepairs_(1,_42)
 + nodepairs_(1,_44) + nodepairs_(1,_45) + nodepairs_(1,_46)
 + nodepairs_(1,_47) + nodepairs_(1,_48) + nodepairs_(1,_49)
 + nodepairs_(1,_5) + nodepairs_(1,_50) + nodepairs_(1,_51)
 + nodepairs_(1,_52) + nodepairs_(1,_53) + nodepairs_(1,_54)
 + nodepairs_(1,_6) + nodepairs_(1,_7) + nodepairs_(1,_8) + nodepairs_(1,_9)
 <= 1
_C20: nodepairs_(19,_0) + nodepairs_(19,_1) + nodepairs_(19,_10)
 + nodepairs_(19,_11) + nodepairs_(19,_12) + nodepairs_(19,_13)
 + nodepairs_(19,_14) + nodepairs_(19,_15) + nodepairs_(19,_16)
 + nodepairs_(19,_17) + nodepairs_(19,_19) + nodepairs_(19,_21)
 + nodepairs_(19,_22) + nodepairs_(19,_23) + nodepairs_(19,_24)
 + nodepairs_(19,_25) + nodepairs_(19,_26) + nodepairs_(19,_27)
 + nodepairs_(19,_28) + nodepairs_(19,_29) + nodepairs_(19,_3)
 + nodepairs_(19,_30) + nodepairs_(19,_31) + nodepairs_(19,_32)
 + nodepairs_(19,_33) + nodepairs_(19,_34) + nodepairs_(19,_35)
 + nodepairs_(19,_36) + nodepairs_(19,_37) + nodepairs_(19,_38)
 + nodepairs_(19,_39) + nodepairs_(19,_40) + nodepairs_(19,_42)
 + nodepairs_(19,_44) + nodepairs_(19,_45) + nodepairs_(19,_46)
 + nodepairs_(19,_47) + nodepairs_(19,_48) + nodepairs_(19,_49)
 + nodepairs_(19,_5) + nodepairs_(19,_50) + nodepairs_(19,_51)
 + nodepairs_(19,_52) + nodepairs_(19,_53) + nodepairs_(19,_54)
 + nodepairs_(19,_6) + nodepairs_(19,_7) + nodepairs_(19,_8)
 + nodepairs_(19,_9) <= 1
_C200: edgepairs_((0,_1),_(34,_35)) + edgepairs_((0,_26),_(34,_35))
 + edgepairs_((10,_11),_(34,_35)) + edgepairs_((11,_12),_(34,_35))
 + edgepairs_((12,_13),_(34,_35)) + edgepairs_((13,_14),_(34,_35))
 + edgepairs_((14,_15),_(34,_35)) + edgepairs_((15,_16),_(34,_35))
 + edgepairs_((16,_17),_(34,_35)) + edgepairs_((17,_18),_(34,_35))
 + edgepairs_((18,_19),_(34,_35)) + edgepairs_((19,_20),_(34,_35))
 + edgepairs_((20,_21),_(34,_35)) + edgepairs_((21,_22),_(34,_35))
 + edgepairs_((22,_23),_(34,_35)) + edgepairs_((23,_24),_(34,_35))
 + edgepairs_((23,_25),_(34,_35)) + edgepairs_((28,_30),_(34,_35))
 + edgepairs_((3,_5),_(34,_35)) + edgepairs_((30,_31),_(34,_35))
 + edgepairs_((31,_32),_(34,_35)) + edgepairs_((32,_33),_(34,_35))
 + edgepairs_((33,_34),_(34,_35)) + edgepairs_((34,_35),_(34,_35))
 + edgepairs_((35,_36),_(34,_35)) + edgepairs_((36,_37),_(34,_35))
 + edgepairs_((37,_38),_(34,_35)) + edgepairs_((38,_39),_(34,_35))
 + edgepairs_((39,_40),_(34,_35)) + edgepairs_((40,_41),_(34,_35))
 + edgepairs_((40,_42),_(34,_35)) + edgepairs_((44,_46),_(34,_35))
 + edgepairs_((46,_47),_(34,_35)) + edgepairs_((47,_48),_(34,_35))
 + edgepairs_((48,_49),_(34,_35)) + edgepairs_((49,_50),_(34,_35))
 + edgepairs_((5,_6),_(34,_35)) + edgepairs_((50,_51),_(34,_35))
 + edgepairs_((51,_52),_(34,_35)) + edgepairs_((52,_53),_(34,_35))
 + edgepairs_((53,_54),_(34,_35)) + edgepairs_((6,_7),_(34,_35))
 + edgepairs_((7,_8),_(34,_35)) + edgepairs_((8,_9),_(34,_35))
 + edgepairs_((9,_10),_(34,_35)) + edgepairs_(_1,_(34,_35)) = 1
_C2000: edgepairs_((31,_32),_(53,_54)) + edgepairs_((32,_33),_(53,_54))
 - nodepairs_(32,_53) - nodepairs_(32,_54) <= 0
_C2001: edgepairs_((32,_33),_(0,_1)) + edgepairs_((33,_34),_(0,_1))
 - nodepairs_(33,_0) - nodepairs_(33,_1) <= 0
_C2002: edgepairs_((32,_33),_(0,_17)) + edgepairs_((33,_34),_(0,_17))
 - nodepairs_(33,_0) - nodepairs_(33,_17) <= 0
_C2003: - nodepairs_(33,_0) <= 0
_C2004: - nodepairs_(33,_1) <= 0
_C2005: - nodepairs_(33,_3) <= 0
_C2006: - nodepairs_(33,_3) <= 0
_C2007: edgepairs_((32,_33),_(3,_5)) + edgepairs_((33,_34),_(3,_5))
 - nodepairs_(33,_3) - nodepairs_(33,_5) <= 0
_C2008: edgepairs_((32,_33),_(5,_6)) + edgepairs_((33,_34),_(5,_6))
 - nodepairs_(33,_5) - nodepairs_(33,_6) <= 0
_C2009: edgepairs_((32,_33),_(6,_7)) + edgepairs_((33,_34),_(6,_7))
 - nodepairs_(33,_6) - nodepairs_(33,_7) <= 0
_C201: edgepairs_((0,_1),_(35,_36)) + edgepairs_((0,_26),_(35,_36))
 + edgepairs_((10,_11),_(35,_36)) + edgepairs_((11,_12),_(35,_36))
 + edgepairs_((12,_13),_(35,_36)) + edgepairs_((13,_14),_(35,_36))
 + edgepairs_((14,_15),_(35,_36)) + edgepairs_((15,_16),_(35,_36))
 + edgepairs_((16,_17),_(35,_36)) + edgepairs_((17,_18),_(35,_36))
 + edgepairs_((18,_19),_(35,_36)) + edgepairs_((19,_20),_(35,_36))
 + edgepairs_((20,_21),_(35,_36)) + edgepairs_((21,_22),_(35,_36))
 + edgepairs_((22,_23),_(35,_36)) + edgepairs_((23,_24),_(35,_36))
 + edgepairs_((23,_25),_(35,_36)) + edgepairs_((28,_30),_(35,_36))
 + edgepairs_((3,_5),_(35,_36)) + edgepairs_((30,_31),_(35,_36))
 + edgepairs_((31,_32),_(35,_36)) + edgepairs_((32,_33),_(35,_36))
 + edgepairs_((33,_34),_(35,_36)) + edgepairs_((34,_35),_(35,_36))
 + edgepairs_((35,_36),_(35,_36)) + edgepairs_((36,_37),_(35,_36))
 + edgepairs_((37,_38),_(35,_36)) + edgepairs_((38,_39),_(35,_36))
 + edgepairs_((39,_40),_(35,_36)) + edgepairs_((40,_41),_(35,_36))
 + edgepairs_((40,_42),_(35,_36)) + edgepairs_((44,_46),_(35,_36))
 + edgepairs_((46,_47),_(35,_36)) + edgepairs_((47,_48),_(35,_36))
 + edgepairs_((48,_49),_(35,_36)) + edgepairs_((49,_50),_(35,_36))
 + edgepairs_((5,_6),_(35,_36)) + edgepairs_((50,_51),_(35,_36))
 + edgepairs_((51,_52),_(35,_36)) + edgepairs_((52,_53),_(35,_36))
 + edgepairs_((53,_54),_(35,_36)) + edgepairs_((6,_7),_(35,_36))
 + edgepairs_((7,_8),_(35,_36)) + edgepairs_((8,_9),_(35,_36))
 + edgepairs_((9,_10),_(35,_36)) + edgepairs_(_1,_(35,_36)) = 1
_C2010: edgepairs_((32,_33),_(7,_8)) + edgepairs_((33,_34),_(7,_8))
 - nodepairs_(33,_7) - nodepairs_(33,_8) <= 0
_C2011: edgepairs_((32,_33),_(8,_9)) + edgepairs_((33,_34),_(8,_9))
 - nodepairs_(33,_8) - nodepairs_(33,_9) <= 0
_C2012: edgepairs_((32,_33),_(9,_10)) + edgepairs_((33,_34),_(9,_10))
 - nodepairs_(33,_10) - nodepairs_(33,_9) <= 0
_C2013: edgepairs_((32,_33),_(10,_11)) + edgepairs_((33,_34),_(10,_11))
 - nodepairs_(33,_10) - nodepairs_(33,_11) <= 0
_C2014: edgepairs_((32,_33),_(11,_12)) + edgepairs_((33,_34),_(11,_12))
 - nodepairs_(33,_11) - nodepairs_(33,_12) <= 0
_C2015: edgepairs_((32,_33),_(12,_13)) + edgepairs_((33,_34),_(12,_13))
 - nodepairs_(33,_12) - nodepairs_(33,_13) <= 0
_C2016: edgepairs_((32,_33),_(13,_14)) + edgepairs_((33,_34),_(13,_14))
 - nodepairs_(33,_13) - nodepairs_(33,_14) <= 0
_C2017: edgepairs_((32,_33),_(14,_15)) + edgepairs_((33,_34),_(14,_15))
 - nodepairs_(33,_14) - nodepairs_(33,_15) <= 0
_C2018: edgepairs_((32,_33),_(15,_16)) + edgepairs_((33,_34),_(15,_16))
 - nodepairs_(33,_15) - nodepairs_(33,_16) <= 0
_C2019: - nodepairs_(33,_17) <= 0
_C202: edgepairs_((0,_1),_(36,_37)) + edgepairs_((0,_26),_(36,_37))
 + edgepairs_((10,_11),_(36,_37)) + edgepairs_((11,_12),_(36,_37))
 + edgepairs_((12,_13),_(36,_37)) + edgepairs_((13,_14),_(36,_37))
 + edgepairs_((14,_15),_(36,_37)) + edgepairs_((15,_16),_(36,_37))
 + edgepairs_((16,_17),_(36,_37)) + edgepairs_((17,_18),_(36,_37))
 + edgepairs_((18,_19),_(36,_37)) + edgepairs_((19,_20),_(36,_37))
 + edgepairs_((20,_21),_(36,_37)) + edgepairs_((21,_22),_(36,_37))
 + edgepairs_((22,_23),_(36,_37)) + edgepairs_((23,_24),_(36,_37))
 + edgepairs_((23,_25),_(36,_37)) + edgepairs_((28,_30),_(36,_37))
 + edgepairs_((3,_5),_(36,_37)) + edgepairs_((30,_31),_(36,_37))
 + edgepairs_((31,_32),_(36,_37)) + edgepairs_((32,_33),_(36,_37))
 + edgepairs_((33,_34),_(36,_37)) + edgepairs_((34,_35),_(36,_37))
 + edgepairs_((35,_36),_(36,_37)) + edgepairs_((36,_37),_(36,_37))
 + edgepairs_((37,_38),_(36,_37)) + edgepairs_((38,_39),_(36,_37))
 + edgepairs_((39,_40),_(36,_37)) + edgepairs_((40,_41),_(36,_37))
 + edgepairs_((40,_42),_(36,_37)) + edgepairs_((44,_46),_(36,_37))
 + edgepairs_((46,_47),_(36,_37)) + edgepairs_((47,_48),_(36,_37))
 + edgepairs_((48,_49),_(36,_37)) + edgepairs_((49,_50),_(36,_37))
 + edgepairs_((5,_6),_(36,_37)) + edgepairs_((50,_51),_(36,_37))
 + edgepairs_((51,_52),_(36,_37)) + edgepairs_((52,_53),_(36,_37))
 + edgepairs_((53,_54),_(36,_37)) + edgepairs_((6,_7),_(36,_37))
 + edgepairs_((7,_8),_(36,_37)) + edgepairs_((8,_9),_(36,_37))
 + edgepairs_((9,_10),_(36,_37)) + edgepairs_(_1,_(36,_37)) = 1
_C2020: - nodepairs_(33,_19) <= 0
_C2021: - nodepairs_(33,_19) <= 0
_C2022: edgepairs_((32,_33),_(19,_21)) + edgepairs_((33,_34),_(19,_21))
 - nodepairs_(33,_19) - nodepairs_(33,_21) <= 0
_C2023: edgepairs_((32,_33),_(21,_22)) + edgepairs_((33,_34),_(21,_22))
 - nodepairs_(33,_21) - nodepairs_(33,_22) <= 0
_C2024: edgepairs_((32,_33),_(22,_23)) + edgepairs_((33,_34),_(22,_23))
 - nodepairs_(33,_22) - nodepairs_(33,_23) <= 0
_C2025: edgepairs_((32,_33),_(23,_24)) + edgepairs_((33,_34),_(23,_24))
 - nodepairs_(33,_23) - nodepairs_(33,_24) <= 0
_C2026: edgepairs_((32,_33),_(24,_25)) + edgepairs_((33,_34),_(24,_25))
 - nodepairs_(33,_24) - nodepairs_(33,_25) <= 0
_C2027: edgepairs_((32,_33),_(25,_26)) + edgepairs_((33,_34),_(25,_26))
 - nodepairs_(33,_25) - nodepairs_(33,_26) <= 0
_C2028: edgepairs_((32,_33),_(26,_27)) + edgepairs_((33,_34),_(26,_27))
 - nodepairs_(33,_26) - nodepairs_(33,_27) <= 0
_C2029: edgepairs_((32,_33),_(27,_28)) + edgepairs_((33,_34),_(27,_28))
 - nodepairs_(33,_27) - nodepairs_(33,_28) <= 0
_C203: edgepairs_((0,_1),_(37,_38)) + edgepairs_((0,_26),_(37,_38))
 + edgepairs_((10,_11),_(37,_38)) + edgepairs_((11,_12),_(37,_38))
 + edgepairs_((12,_13),_(37,_38)) + edgepairs_((13,_14),_(37,_38))
 + edgepairs_((14,_15),_(37,_38)) + edgepairs_((15,_16),_(37,_38))
 + edgepairs_((16,_17),_(37,_38)) + edgepairs_((17,_18),_(37,_38))
 + edgepairs_((18,_19),_(37,_38)) + edgepairs_((19,_20),_(37,_38))
 + edgepairs_((20,_21),_(37,_38)) + edgepairs_((21,_22),_(37,_38))
 + edgepairs_((22,_23),_(37,_38)) + edgepairs_((23,_24),_(37,_38))
 + edgepairs_((23,_25),_(37,_38)) + edgepairs_((28,_30),_(37,_38))
 + edgepairs_((3,_5),_(37,_38)) + edgepairs_((30,_31),_(37,_38))
 + edgepairs_((31,_32),_(37,_38)) + edgepairs_((32,_33),_(37,_38))
 + edgepairs_((33,_34),_(37,_38)) + edgepairs_((34,_35),_(37,_38))
 + edgepairs_((35,_36),_(37,_38)) + edgepairs_((36,_37),_(37,_38))
 + edgepairs_((37,_38),_(37,_38)) + edgepairs_((38,_39),_(37,_38))
 + edgepairs_((39,_40),_(37,_38)) + edgepairs_((40,_41),_(37,_38))
 + edgepairs_((40,_42),_(37,_38)) + edgepairs_((44,_46),_(37,_38))
 + edgepairs_((46,_47),_(37,_38)) + edgepairs_((47,_48),_(37,_38))
 + edgepairs_((48,_49),_(37,_38)) + edgepairs_((49,_50),_(37,_38))
 + edgepairs_((5,_6),_(37,_38)) + edgepairs_((50,_51),_(37,_38))
 + edgepairs_((51,_52),_(37,_38)) + edgepairs_((52,_53),_(37,_38))
 + edgepairs_((53,_54),_(37,_38)) + edgepairs_((6,_7),_(37,_38))
 + edgepairs_((7,_8),_(37,_38)) + edgepairs_((8,_9),_(37,_38))
 + edgepairs_((9,_10),_(37,_38)) + edgepairs_(_1,_(37,_38)) = 1
_C2030: edgepairs_((32,_33),_(28,_29)) + edgepairs_((33,_34),_(28,_29))
 - nodepairs_(33,_28) - nodepairs_(33,_29) <= 0
_C2031: edgepairs_((32,_33),_(29,_30)) + edgepairs_((33,_34),_(29,_30))
 - nodepairs_(33,_29) - nodepairs_(33,_30) <= 0
_C2032: edgepairs_((32,_33),_(30,_31)) + edgepairs_((33,_34),_(30,_31))
 - nodepairs_(33,_30) - nodepairs_(33,_31) <= 0
_C2033: edgepairs_((32,_33),_(31,_32)) + edgepairs_((33,_34),_(31,_32))
 - nodepairs_(33,_31) - nodepairs_(33,_32) <= 0
_C2034: edgepairs_((32,_33),_(32,_33)) + edgepairs_((33,_34),_(32,_33))
 - nodepairs_(33,_32) - nodepairs_(33,_33) <= 0
_C2035: edgepairs_((32,_33),_(33,_34)) + edgepairs_((33,_34),_(33,_34))
 - nodepairs_(33,_33) - nodepairs_(33,_34) <= 0
_C2036: edgepairs_((32,_33),_(34,_35)) + edgepairs_((33,_34),_(34,_35))
 - nodepairs_(33,_34) - nodepairs_(33,_35) <= 0
_C2037: edgepairs_((32,_33),_(35,_36)) + edgepairs_((33,_34),_(35,_36))
 - nodepairs_(33,_35) - nodepairs_(33,_36) <= 0
_C2038: edgepairs_((32,_33),_(36,_37)) + edgepairs_((33,_34),_(36,_37))
 - nodepairs_(33,_36) - nodepairs_(33,_37) <= 0
_C2039: edgepairs_((32,_33),_(37,_38)) + edgepairs_((33,_34),_(37,_38))
 - nodepairs_(33,_37) - nodepairs_(33,_38) <= 0
_C204: edgepairs_((0,_1),_(37,_39)) + edgepairs_((0,_26),_(37,_39))
 + edgepairs_((10,_11),_(37,_39)) + edgepairs_((11,_12),_(37,_39))
 + edgepairs_((12,_13),_(37,_39)) + edgepairs_((13,_14),_(37,_39))
 + edgepairs_((14,_15),_(37,_39)) + edgepairs_((15,_16),_(37,_39))
 + edgepairs_((16,_17),_(37,_39)) + edgepairs_((17,_18),_(37,_39))
 + edgepairs_((18,_19),_(37,_39)) + edgepairs_((19,_20),_(37,_39))
 + edgepairs_((20,_21),_(37,_39)) + edgepairs_((21,_22),_(37,_39))
 + edgepairs_((22,_23),_(37,_39)) + edgepairs_((23,_24),_(37,_39))
 + edgepairs_((23,_25),_(37,_39)) + edgepairs_((28,_30),_(37,_39))
 + edgepairs_((3,_5),_(37,_39)) + edgepairs_((30,_31),_(37,_39))
 + edgepairs_((31,_32),_(37,_39)) + edgepairs_((32,_33),_(37,_39))
 + edgepairs_((33,_34),_(37,_39)) + edgepairs_((34,_35),_(37,_39))
 + edgepairs_((35,_36),_(37,_39)) + edgepairs_((36,_37),_(37,_39))
 + edgepairs_((37,_38),_(37,_39)) + edgepairs_((38,_39),_(37,_39))
 + edgepairs_((39,_40),_(37,_39)) + edgepairs_((40,_41),_(37,_39))
 + edgepairs_((40,_42),_(37,_39)) + edgepairs_((44,_46),_(37,_39))
 + edgepairs_((46,_47),_(37,_39)) + edgepairs_((47,_48),_(37,_39))
 + edgepairs_((48,_49),_(37,_39)) + edgepairs_((49,_50),_(37,_39))
 + edgepairs_((5,_6),_(37,_39)) + edgepairs_((50,_51),_(37,_39))
 + edgepairs_((51,_52),_(37,_39)) + edgepairs_((52,_53),_(37,_39))
 + edgepairs_((53,_54),_(37,_39)) + edgepairs_((6,_7),_(37,_39))
 + edgepairs_((7,_8),_(37,_39)) + edgepairs_((8,_9),_(37,_39))
 + edgepairs_((9,_10),_(37,_39)) + edgepairs_(_1,_(37,_39)) = 1
_C2040: edgepairs_((32,_33),_(37,_39)) + edgepairs_((33,_34),_(37,_39))
 - nodepairs_(33,_37) - nodepairs_(33,_39) <= 0
_C2041: edgepairs_((32,_33),_(39,_40)) + edgepairs_((33,_34),_(39,_40))
 - nodepairs_(33,_39) - nodepairs_(33,_40) <= 0
_C2042: - nodepairs_(33,_42) <= 0
_C2043: - nodepairs_(33,_42) <= 0
_C2044: edgepairs_((32,_33),_(42,_44)) + edgepairs_((33,_34),_(42,_44))
 - nodepairs_(33,_42) - nodepairs_(33,_44) <= 0
_C2045: edgepairs_((32,_33),_(44,_45)) + edgepairs_((33,_34),_(44,_45))
 - nodepairs_(33,_44) - nodepairs_(33,_45) <= 0
_C2046: edgepairs_((32,_33),_(45,_46)) + edgepairs_((33,_34),_(45,_46))
 - nodepairs_(33,_45) - nodepairs_(33,_46) <= 0
_C2047: edgepairs_((32,_33),_(46,_47)) + edgepairs_((33,_34),_(46,_47))
 - nodepairs_(33,_46) - nodepairs_(33,_47) <= 0
_C2048: edgepairs_((32,_33),_(47,_48)) + edgepairs_((33,_34),_(47,_48))
 - nodepairs_(33,_47) - nodepairs_(33,_48) <= 0
_C2049: edgepairs_((32,_33),_(48,_49)) + edgepairs_((33,_34),_(48,_49))
 - nodepairs_(33,_48) - nodepairs_(33,_49) <= 0
_C205: edgepairs_((0,_1),_(39,_40)) + edgepairs_((0,_26),_(39,_40))
 + edgepairs_((10,_11),_(39,_40)) + edgepairs_((11,_12),_(39,_40))
 + edgepairs_((12,_13),_(39,_40)) + edgepairs_((13,_14),_(39,_40))
 + edgepairs_((14,_15),_(39,_40)) + edgepairs_((15,_16),_(39,_40))
 + edgepairs_((16,_17),_(39,_40)) + edgepairs_((17,_18),_(39,_40))
 + edgepairs_((18,_19),_(39,_40)) + edgepairs_((19,_20),_(39,_40))
 + edgepairs_((20,_21),_(39,_40)) + edgepairs_((21,_22),_(39,_40))
 + edgepairs_((22,_23),_(39,_40)) + edgepairs_((23,_24),_(39,_40))
 + edgepairs_((23,_25),_(39,_40)) + edgepairs_((28,_30),_(39,_40))
 + edgepairs_((3,_5),_(39,_40)) + edgepairs_((30,_31),_(39,_40))
 + edgepairs_((31,_32),_(39,_40)) + edgepairs_((32,_33),_(39,_40))
 + edgepairs_((33,_34),_(39,_40)) + edgepairs_((34,_35),_(39,_40))
 + edgepairs_((35,_36),_(39,_40)) + edgepairs_((36,_37),_(39,_40))
 + edgepairs_((37,_38),_(39,_40)) + edgepairs_((38,_39),_(39,_40))
 + edgepairs_((39,_40),_(39,_40)) + edgepairs_((40,_41),_(39,_40))
 + edgepairs_((40,_42),_(39,_40)) + edgepairs_((44,_46),_(39,_40))
 + edgepairs_((46,_47),_(39,_40)) + edgepairs_((47,_48),_(39,_40))
 + edgepairs_((48,_49),_(39,_40)) + edgepairs_((49,_50),_(39,_40))
 + edgepairs_((5,_6),_(39,_40)) + edgepairs_((50,_51),_(39,_40))
 + edgepairs_((51,_52),_(39,_40)) + edgepairs_((52,_53),_(39,_40))
 + edgepairs_((53,_54),_(39,_40)) + edgepairs_((6,_7),_(39,_40))
 + edgepairs_((7,_8),_(39,_40)) + edgepairs_((8,_9),_(39,_40))
 + edgepairs_((9,_10),_(39,_40)) + edgepairs_(_1,_(39,_40)) = 1
_C2050: edgepairs_((32,_33),_(49,_50)) + edgepairs_((33,_34),_(49,_50))
 - nodepairs_(33,_49) - nodepairs_(33,_50) <= 0
_C2051: edgepairs_((32,_33),_(50,_51)) + edgepairs_((33,_34),_(50,_51))
 - nodepairs_(33,_50) - nodepairs_(33,_51) <= 0
_C2052: edgepairs_((32,_33),_(51,_52)) + edgepairs_((33,_34),_(51,_52))
 - nodepairs_(33,_51) - nodepairs_(33,_52) <= 0
_C2053: edgepairs_((32,_33),_(52,_53)) + edgepairs_((33,_34),_(52,_53))
 - nodepairs_(33,_52) - nodepairs_(33,_53) <= 0
_C2054: edgepairs_((32,_33),_(53,_54)) + edgepairs_((33,_34),_(53,_54))
 - nodepairs_(33,_53) - nodepairs_(33,_54) <= 0
_C2055: edgepairs_((33,_34),_(0,_1)) + edgepairs_((34,_35),_(0,_1))
 - nodepairs_(34,_0) - nodepairs_(34,_1) <= 0
_C2056: edgepairs_((33,_34),_(0,_17)) + edgepairs_((34,_35),_(0,_17))
 - nodepairs_(34,_0) - nodepairs_(34,_17) <= 0
_C2057: - nodepairs_(34,_0) <= 0
_C2058: - nodepairs_(34,_1) <= 0
_C2059: - nodepairs_(34,_3) <= 0
_C206: edgepairs_((0,_43),_(41,_42)) + edgepairs_((1,_2),_(41,_42))
 + edgepairs_((2,_3),_(41,_42)) + edgepairs_((26,_27),_(41,_42))
 + edgepairs_((27,_28),_(41,_42)) + edgepairs_((28,_29),_(41,_42))
 + edgepairs_((3,_4),_(41,_42)) + edgepairs_((43,_44),_(41,_42))
 + edgepairs_((44,_45),_(41,_42)) + edgepairs_(_1,_(41,_42)) = 1
_C2060: - nodepairs_(34,_3) <= 0
_C2061: edgepairs_((33,_34),_(3,_5)) + edgepairs_((34,_35),_(3,_5))
 - nodepairs_(34,_3) - nodepairs_(34,_5) <= 0
_C2062: edgepairs_((33,_34),_(5,_6)) + edgepairs_((34,_35),_(5,_6))
 - nodepairs_(34,_5) - nodepairs_(34,_6) <= 0
_C2063: edgepairs_((33,_34),_(6,_7)) + edgepairs_((34,_35),_(6,_7))
 - nodepairs_(34,_6) - nodepairs_(34,_7) <= 0
_C2064: edgepairs_((33,_34),_(7,_8)) + edgepairs_((34,_35),_(7,_8))
 - nodepairs_(34,_7) - nodepairs_(34,_8) <= 0
_C2065: edgepairs_((33,_34),_(8,_9)) + edgepairs_((34,_35),_(8,_9))
 - nodepairs_(34,_8) - nodepairs_(34,_9) <= 0
_C2066: edgepairs_((33,_34),_(9,_10)) + edgepairs_((34,_35),_(9,_10))
 - nodepairs_(34,_10) - nodepairs_(34,_9) <= 0
_C2067: edgepairs_((33,_34),_(10,_11)) + edgepairs_((34,_35),_(10,_11))
 - nodepairs_(34,_10) - nodepairs_(34,_11) <= 0
_C2068: edgepairs_((33,_34),_(11,_12)) + edgepairs_((34,_35),_(11,_12))
 - nodepairs_(34,_11) - nodepairs_(34,_12) <= 0
_C2069: edgepairs_((33,_34),_(12,_13)) + edgepairs_((34,_35),_(12,_13))
 - nodepairs_(34,_12) - nodepairs_(34,_13) <= 0
_C207: edgepairs_((0,_43),_(42,_43)) + edgepairs_((1,_2),_(42,_43))
 + edgepairs_((2,_3),_(42,_43)) + edgepairs_((26,_27),_(42,_43))
 + edgepairs_((27,_28),_(42,_43)) + edgepairs_((28,_29),_(42,_43))
 + edgepairs_((3,_4),_(42,_43)) + edgepairs_((43,_44),_(42,_43))
 + edgepairs_((44,_45),_(42,_43)) + edgepairs_(_1,_(42,_43)) = 1
_C2070: edgepairs_((33,_34),_(13,_14)) + edgepairs_((34,_35),_(13,_14))
 - nodepairs_(34,_13) - nodepairs_(34,_14) <= 0
_C2071: edgepairs_((33,_34),_(14,_15)) + edgepairs_((34,_35),_(14,_15))
 - nodepairs_(34,_14) - nodepairs_(34,_15) <= 0
_C2072: edgepairs_((33,_34),_(15,_16)) + edgepairs_((34,_35),_(15,_16))
 - nodepairs_(34,_15) - nodepairs_(34,_16) <= 0
_C2073: - nodepairs_(34,_17) <= 0
_C2074: - nodepairs_(34,_19) <= 0
_C2075: - nodepairs_(34,_19) <= 0
_C2076: edgepairs_((33,_34),_(19,_21)) + edgepairs_((34,_35),_(19,_21))
 - nodepairs_(34,_19) - nodepairs_(34,_21) <= 0
_C2077: edgepairs_((33,_34),_(21,_22)) + edgepairs_((34,_35),_(21,_22))
 - nodepairs_(34,_21) - nodepairs_(34,_22) <= 0
_C2078: edgepairs_((33,_34),_(22,_23)) + edgepairs_((34,_35),_(22,_23))
 - nodepairs_(34,_22) - nodepairs_(34,_23) <= 0
_C2079: edgepairs_((33,_34),_(23,_24)) + edgepairs_((34,_35),_(23,_24))
 - nodepairs_(34,_23) - nodepairs_(34,_24) <= 0
_C208: edgepairs_((0,_1),_(42,_44)) + edgepairs_((0,_26),_(42,_44))
 + edgepairs_((10,_11),_(42,_44)) + edgepairs_((11,_12),_(42,_44))
 + edgepairs_((12,_13),_(42,_44)) + edgepairs_((13,_14),_(42,_44))
 + edgepairs_((14,_15),_(42,_44)) + edgepairs_((15,_16),_(42,_44))
 + edgepairs_((16,_17),_(42,_44)) + edgepairs_((17,_18),_(42,_44))
 + edgepairs_((18,_19),_(42,_44)) + edgepairs_((19,_20),_(42,_44))
 + edgepairs_((20,_21),_(42,_44)) + edgepairs_((21,_22),_(42,_44))
 + edgepairs_((22,_23),_(42,_44)) + edgepairs_((23,_24),_(42,_44))
 + edgepairs_((23,_25),_(42,_44)) + edgepairs_((28,_30),_(42,_44))
 + edgepairs_((3,_5),_(42,_44)) + edgepairs_((30,_31),_(42,_44))
 + edgepairs_((31,_32),_(42,_44)) + edgepairs_((32,_33),_(42,_44))
 + edgepairs_((33,_34),_(42,_44)) + edgepairs_((34,_35),_(42,_44))
 + edgepairs_((35,_36),_(42,_44)) + edgepairs_((36,_37),_(42,_44))
 + edgepairs_((37,_38),_(42,_44)) + edgepairs_((38,_39),_(42,_44))
 + edgepairs_((39,_40),_(42,_44)) + edgepairs_((40,_41),_(42,_44))
 + edgepairs_((40,_42),_(42,_44)) + edgepairs_((44,_46),_(42,_44))
 + edgepairs_((46,_47),_(42,_44)) + edgepairs_((47,_48),_(42,_44))
 + edgepairs_((48,_49),_(42,_44)) + edgepairs_((49,_50),_(42,_44))
 + edgepairs_((5,_6),_(42,_44)) + edgepairs_((50,_51),_(42,_44))
 + edgepairs_((51,_52),_(42,_44)) + edgepairs_((52,_53),_(42,_44))
 + edgepairs_((53,_54),_(42,_44)) + edgepairs_((6,_7),_(42,_44))
 + edgepairs_((7,_8),_(42,_44)) + edgepairs_((8,_9),_(42,_44))
 + edgepairs_((9,_10),_(42,_44)) + edgepairs_(_1,_(42,_44)) = 1
_C2080: edgepairs_((33,_34),_(24,_25)) + edgepairs_((34,_35),_(24,_25))
 - nodepairs_(34,_24) - nodepairs_(34,_25) <= 0
_C2081: edgepairs_((33,_34),_(25,_26)) + edgepairs_((34,_35),_(25,_26))
 - nodepairs_(34,_25) - nodepairs_(34,_26) <= 0
_C2082: edgepairs_((33,_34),_(26,_27)) + edgepairs_((34,_35),_(26,_27))
 - nodepairs_(34,_26) - nodepairs_(34,_27) <= 0
_C2083: edgepairs_((33,_34),_(27,_28)) + edgepairs_((34,_35),_(27,_28))
 - nodepairs_(34,_27) - nodepairs_(34,_28) <= 0
_C2084: edgepairs_((33,_34),_(28,_29)) + edgepairs_((34,_35),_(28,_29))
 - nodepairs_(34,_28) - nodepairs_(34,_29) <= 0
_C2085: edgepairs_((33,_34),_(29,_30)) + edgepairs_((34,_35),_(29,_30))
 - nodepairs_(34,_29) - nodepairs_(34,_30) <= 0
_C2086: edgepairs_((33,_34),_(30,_31)) + edgepairs_((34,_35),_(30,_31))
 - nodepairs_(34,_30) - nodepairs_(34,_31) <= 0
_C2087: edgepairs_((33,_34),_(31,_32)) + edgepairs_((34,_35),_(31,_32))
 - nodepairs_(34,_31) - nodepairs_(34,_32) <= 0
_C2088: edgepairs_((33,_34),_(32,_33)) + edgepairs_((34,_35),_(32,_33))
 - nodepairs_(34,_32) - nodepairs_(34,_33) <= 0
_C2089: edgepairs_((33,_34),_(33,_34)) + edgepairs_((34,_35),_(33,_34))
 - nodepairs_(34,_33) - nodepairs_(34,_34) <= 0
_C209: edgepairs_((0,_1),_(44,_45)) + edgepairs_((0,_26),_(44,_45))
 + edgepairs_((10,_11),_(44,_45)) + edgepairs_((11,_12),_(44,_45))
 + edgepairs_((12,_13),_(44,_45)) + edgepairs_((13,_14),_(44,_45))
 + edgepairs_((14,_15),_(44,_45)) + edgepairs_((15,_16),_(44,_45))
 + edgepairs_((16,_17),_(44,_45)) + edgepairs_((17,_18),_(44,_45))
 + edgepairs_((18,_19),_(44,_45)) + edgepairs_((19,_20),_(44,_45))
 + edgepairs_((20,_21),_(44,_45)) + edgepairs_((21,_22),_(44,_45))
 + edgepairs_((22,_23),_(44,_45)) + edgepairs_((23,_24),_(44,_45))
 + edgepairs_((23,_25),_(44,_45)) + edgepairs_((28,_30),_(44,_45))
 + edgepairs_((3,_5),_(44,_45)) + edgepairs_((30,_31),_(44,_45))
 + edgepairs_((31,_32),_(44,_45)) + edgepairs_((32,_33),_(44,_45))
 + edgepairs_((33,_34),_(44,_45)) + edgepairs_((34,_35),_(44,_45))
 + edgepairs_((35,_36),_(44,_45)) + edgepairs_((36,_37),_(44,_45))
 + edgepairs_((37,_38),_(44,_45)) + edgepairs_((38,_39),_(44,_45))
 + edgepairs_((39,_40),_(44,_45)) + edgepairs_((40,_41),_(44,_45))
 + edgepairs_((40,_42),_(44,_45)) + edgepairs_((44,_46),_(44,_45))
 + edgepairs_((46,_47),_(44,_45)) + edgepairs_((47,_48),_(44,_45))
 + edgepairs_((48,_49),_(44,_45)) + edgepairs_((49,_50),_(44,_45))
 + edgepairs_((5,_6),_(44,_45)) + edgepairs_((50,_51),_(44,_45))
 + edgepairs_((51,_52),_(44,_45)) + edgepairs_((52,_53),_(44,_45))
 + edgepairs_((53,_54),_(44,_45)) + edgepairs_((6,_7),_(44,_45))
 + edgepairs_((7,_8),_(44,_45)) + edgepairs_((8,_9),_(44,_45))
 + edgepairs_((9,_10),_(44,_45)) + edgepairs_(_1,_(44,_45)) = 1
_C2090: edgepairs_((33,_34),_(34,_35)) + edgepairs_((34,_35),_(34,_35))
 - nodepairs_(34,_34) - nodepairs_(34,_35) <= 0
_C2091: edgepairs_((33,_34),_(35,_36)) + edgepairs_((34,_35),_(35,_36))
 - nodepairs_(34,_35) - nodepairs_(34,_36) <= 0
_C2092: edgepairs_((33,_34),_(36,_37)) + edgepairs_((34,_35),_(36,_37))
 - nodepairs_(34,_36) - nodepairs_(34,_37) <= 0
_C2093: edgepairs_((33,_34),_(37,_38)) + edgepairs_((34,_35),_(37,_38))
 - nodepairs_(34,_37) - nodepairs_(34,_38) <= 0
_C2094: edgepairs_((33,_34),_(37,_39)) + edgepairs_((34,_35),_(37,_39))
 - nodepairs_(34,_37) - nodepairs_(34,_39) <= 0
_C2095: edgepairs_((33,_34),_(39,_40)) + edgepairs_((34,_35),_(39,_40))
 - nodepairs_(34,_39) - nodepairs_(34,_40) <= 0
_C2096: - nodepairs_(34,_42) <= 0
_C2097: - nodepairs_(34,_42) <= 0
_C2098: edgepairs_((33,_34),_(42,_44)) + edgepairs_((34,_35),_(42,_44))
 - nodepairs_(34,_42) - nodepairs_(34,_44) <= 0
_C2099: edgepairs_((33,_34),_(44,_45)) + edgepairs_((34,_35),_(44,_45))
 - nodepairs_(34,_44) - nodepairs_(34,_45) <= 0
_C21: nodepairs_(20,_0) + nodepairs_(20,_1) + nodepairs_(20,_10)
 + nodepairs_(20,_11) + nodepairs_(20,_12) + nodepairs_(20,_13)
 + nodepairs_(20,_14) + nodepairs_(20,_15) + nodepairs_(20,_16)
 + nodepairs_(20,_17) + nodepairs_(20,_19) + nodepairs_(20,_21)
 + nodepairs_(20,_22) + nodepairs_(20,_23) + nodepairs_(20,_24)
 + nodepairs_(20,_25) + nodepairs_(20,_26) + nodepairs_(20,_27)
 + nodepairs_(20,_28) + nodepairs_(20,_29) + nodepairs_(20,_3)
 + nodepairs_(20,_30) + nodepairs_(20,_31) + nodepairs_(20,_32)
 + nodepairs_(20,_33) + nodepairs_(20,_34) + nodepairs_(20,_35)
 + nodepairs_(20,_36) + nodepairs_(20,_37) + nodepairs_(20,_38)
 + nodepairs_(20,_39) + nodepairs_(20,_40) + nodepairs_(20,_42)
 + nodepairs_(20,_44) + nodepairs_(20,_45) + nodepairs_(20,_46)
 + nodepairs_(20,_47) + nodepairs_(20,_48) + nodepairs_(20,_49)
 + nodepairs_(20,_5) + nodepairs_(20,_50) + nodepairs_(20,_51)
 + nodepairs_(20,_52) + nodepairs_(20,_53) + nodepairs_(20,_54)
 + nodepairs_(20,_6) + nodepairs_(20,_7) + nodepairs_(20,_8)
 + nodepairs_(20,_9) <= 1
_C210: edgepairs_((0,_1),_(45,_46)) + edgepairs_((0,_26),_(45,_46))
 + edgepairs_((10,_11),_(45,_46)) + edgepairs_((11,_12),_(45,_46))
 + edgepairs_((12,_13),_(45,_46)) + edgepairs_((13,_14),_(45,_46))
 + edgepairs_((14,_15),_(45,_46)) + edgepairs_((15,_16),_(45,_46))
 + edgepairs_((16,_17),_(45,_46)) + edgepairs_((17,_18),_(45,_46))
 + edgepairs_((18,_19),_(45,_46)) + edgepairs_((19,_20),_(45,_46))
 + edgepairs_((20,_21),_(45,_46)) + edgepairs_((21,_22),_(45,_46))
 + edgepairs_((22,_23),_(45,_46)) + edgepairs_((23,_24),_(45,_46))
 + edgepairs_((23,_25),_(45,_46)) + edgepairs_((28,_30),_(45,_46))
 + edgepairs_((3,_5),_(45,_46)) + edgepairs_((30,_31),_(45,_46))
 + edgepairs_((31,_32),_(45,_46)) + edgepairs_((32,_33),_(45,_46))
 + edgepairs_((33,_34),_(45,_46)) + edgepairs_((34,_35),_(45,_46))
 + edgepairs_((35,_36),_(45,_46)) + edgepairs_((36,_37),_(45,_46))
 + edgepairs_((37,_38),_(45,_46)) + edgepairs_((38,_39),_(45,_46))
 + edgepairs_((39,_40),_(45,_46)) + edgepairs_((40,_41),_(45,_46))
 + edgepairs_((40,_42),_(45,_46)) + edgepairs_((44,_46),_(45,_46))
 + edgepairs_((46,_47),_(45,_46)) + edgepairs_((47,_48),_(45,_46))
 + edgepairs_((48,_49),_(45,_46)) + edgepairs_((49,_50),_(45,_46))
 + edgepairs_((5,_6),_(45,_46)) + edgepairs_((50,_51),_(45,_46))
 + edgepairs_((51,_52),_(45,_46)) + edgepairs_((52,_53),_(45,_46))
 + edgepairs_((53,_54),_(45,_46)) + edgepairs_((6,_7),_(45,_46))
 + edgepairs_((7,_8),_(45,_46)) + edgepairs_((8,_9),_(45,_46))
 + edgepairs_((9,_10),_(45,_46)) + edgepairs_(_1,_(45,_46)) = 1
_C2100: edgepairs_((33,_34),_(45,_46)) + edgepairs_((34,_35),_(45,_46))
 - nodepairs_(34,_45) - nodepairs_(34,_46) <= 0
_C2101: edgepairs_((33,_34),_(46,_47)) + edgepairs_((34,_35),_(46,_47))
 - nodepairs_(34,_46) - nodepairs_(34,_47) <= 0
_C2102: edgepairs_((33,_34),_(47,_48)) + edgepairs_((34,_35),_(47,_48))
 - nodepairs_(34,_47) - nodepairs_(34,_48) <= 0
_C2103: edgepairs_((33,_34),_(48,_49)) + edgepairs_((34,_35),_(48,_49))
 - nodepairs_(34,_48) - nodepairs_(34,_49) <= 0
_C2104: edgepairs_((33,_34),_(49,_50)) + edgepairs_((34,_35),_(49,_50))
 - nodepairs_(34,_49) - nodepairs_(34,_50) <= 0
_C2105: edgepairs_((33,_34),_(50,_51)) + edgepairs_((34,_35),_(50,_51))
 - nodepairs_(34,_50) - nodepairs_(34,_51) <= 0
_C2106: edgepairs_((33,_34),_(51,_52)) + edgepairs_((34,_35),_(51,_52))
 - nodepairs_(34,_51) - nodepairs_(34,_52) <= 0
_C2107: edgepairs_((33,_34),_(52,_53)) + edgepairs_((34,_35),_(52,_53))
 - nodepairs_(34,_52) - nodepairs_(34,_53) <= 0
_C2108: edgepairs_((33,_34),_(53,_54)) + edgepairs_((34,_35),_(53,_54))
 - nodepairs_(34,_53) - nodepairs_(34,_54) <= 0
_C2109: edgepairs_((34,_35),_(0,_1)) + edgepairs_((35,_36),_(0,_1))
 - nodepairs_(35,_0) - nodepairs_(35,_1) <= 0
_C211: edgepairs_((0,_1),_(46,_47)) + edgepairs_((0,_26),_(46,_47))
 + edgepairs_((10,_11),_(46,_47)) + edgepairs_((11,_12),_(46,_47))
 + edgepairs_((12,_13),_(46,_47)) + edgepairs_((13,_14),_(46,_47))
 + edgepairs_((14,_15),_(46,_47)) + edgepairs_((15,_16),_(46,_47))
 + edgepairs_((16,_17),_(46,_47)) + edgepairs_((17,_18),_(46,_47))
 + edgepairs_((18,_19),_(46,_47)) + edgepairs_((19,_20),_(46,_47))
 + edgepairs_((20,_21),_(46,_47)) + edgepairs_((21,_22),_(46,_47))
 + edgepairs_((22,_23),_(46,_47)) + edgepairs_((23,_24),_(46,_47))
 + edgepairs_((23,_25),_(46,_47)) + edgepairs_((28,_30),_(46,_47))
 + edgepairs_((3,_5),_(46,_47)) + edgepairs_((30,_31),_(46,_47))
 + edgepairs_((31,_32),_(46,_47)) + edgepairs_((32,_33),_(46,_47))
 + edgepairs_((33,_34),_(46,_47)) + edgepairs_((34,_35),_(46,_47))
 + edgepairs_((35,_36),_(46,_47)) + edgepairs_((36,_37),_(46,_47))
 + edgepairs_((37,_38),_(46,_47)) + edgepairs_((38,_39),_(46,_47))
 + edgepairs_((39,_40),_(46,_47)) + edgepairs_((40,_41),_(46,_47))
 + edgepairs_((40,_42),_(46,_47)) + edgepairs_((44,_46),_(46,_47))
 + edgepairs_((46,_47),_(46,_47)) + edgepairs_((47,_48),_(46,_47))
 + edgepairs_((48,_49),_(46,_47)) + edgepairs_((49,_50),_(46,_47))
 + edgepairs_((5,_6),_(46,_47)) + edgepairs_((50,_51),_(46,_47))
 + edgepairs_((51,_52),_(46,_47)) + edgepairs_((52,_53),_(46,_47))
 + edgepairs_((53,_54),_(46,_47)) + edgepairs_((6,_7),_(46,_47))
 + edgepairs_((7,_8),_(46,_47)) + edgepairs_((8,_9),_(46,_47))
 + edgepairs_((9,_10),_(46,_47)) + edgepairs_(_1,_(46,_47)) = 1
_C2110: edgepairs_((34,_35),_(0,_17)) + edgepairs_((35,_36),_(0,_17))
 - nodepairs_(35,_0) - nodepairs_(35,_17) <= 0
_C2111: - nodepairs_(35,_0) <= 0
_C2112: - nodepairs_(35,_1) <= 0
_C2113: - nodepairs_(35,_3) <= 0
_C2114: - nodepairs_(35,_3) <= 0
_C2115: edgepairs_((34,_35),_(3,_5)) + edgepairs_((35,_36),_(3,_5))
 - nodepairs_(35,_3) - nodepairs_(35,_5) <= 0
_C2116: edgepairs_((34,_35),_(5,_6)) + edgepairs_((35,_36),_(5,_6))
 - nodepairs_(35,_5) - nodepairs_(35,_6) <= 0
_C2117: edgepairs_((34,_35),_(6,_7)) + edgepairs_((35,_36),_(6,_7))
 - nodepairs_(35,_6) - nodepairs_(35,_7) <= 0
_C2118: edgepairs_((34,_35),_(7,_8)) + edgepairs_((35,_36),_(7,_8))
 - nodepairs_(35,_7) - nodepairs_(35,_8) <= 0
_C2119: edgepairs_((34,_35),_(8,_9)) + edgepairs_((35,_36),_(8,_9))
 - nodepairs_(35,_8) - nodepairs_(35,_9) <= 0
_C212: edgepairs_((0,_1),_(47,_48)) + edgepairs_((0,_26),_(47,_48))
 + edgepairs_((10,_11),_(47,_48)) + edgepairs_((11,_12),_(47,_48))
 + edgepairs_((12,_13),_(47,_48)) + edgepairs_((13,_14),_(47,_48))
 + edgepairs_((14,_15),_(47,_48)) + edgepairs_((15,_16),_(47,_48))
 + edgepairs_((16,_17),_(47,_48)) + edgepairs_((17,_18),_(47,_48))
 + edgepairs_((18,_19),_(47,_48)) + edgepairs_((19,_20),_(47,_48))
 + edgepairs_((20,_21),_(47,_48)) + edgepairs_((21,_22),_(47,_48))
 + edgepairs_((22,_23),_(47,_48)) + edgepairs_((23,_24),_(47,_48))
 + edgepairs_((23,_25),_(47,_48)) + edgepairs_((28,_30),_(47,_48))
 + edgepairs_((3,_5),_(47,_48)) + edgepairs_((30,_31),_(47,_48))
 + edgepairs_((31,_32),_(47,_48)) + edgepairs_((32,_33),_(47,_48))
 + edgepairs_((33,_34),_(47,_48)) + edgepairs_((34,_35),_(47,_48))
 + edgepairs_((35,_36),_(47,_48)) + edgepairs_((36,_37),_(47,_48))
 + edgepairs_((37,_38),_(47,_48)) + edgepairs_((38,_39),_(47,_48))
 + edgepairs_((39,_40),_(47,_48)) + edgepairs_((40,_41),_(47,_48))
 + edgepairs_((40,_42),_(47,_48)) + edgepairs_((44,_46),_(47,_48))
 + edgepairs_((46,_47),_(47,_48)) + edgepairs_((47,_48),_(47,_48))
 + edgepairs_((48,_49),_(47,_48)) + edgepairs_((49,_50),_(47,_48))
 + edgepairs_((5,_6),_(47,_48)) + edgepairs_((50,_51),_(47,_48))
 + edgepairs_((51,_52),_(47,_48)) + edgepairs_((52,_53),_(47,_48))
 + edgepairs_((53,_54),_(47,_48)) + edgepairs_((6,_7),_(47,_48))
 + edgepairs_((7,_8),_(47,_48)) + edgepairs_((8,_9),_(47,_48))
 + edgepairs_((9,_10),_(47,_48)) + edgepairs_(_1,_(47,_48)) = 1
_C2120: edgepairs_((34,_35),_(9,_10)) + edgepairs_((35,_36),_(9,_10))
 - nodepairs_(35,_10) - nodepairs_(35,_9) <= 0
_C2121: edgepairs_((34,_35),_(10,_11)) + edgepairs_((35,_36),_(10,_11))
 - nodepairs_(35,_10) - nodepairs_(35,_11) <= 0
_C2122: edgepairs_((34,_35),_(11,_12)) + edgepairs_((35,_36),_(11,_12))
 - nodepairs_(35,_11) - nodepairs_(35,_12) <= 0
_C2123: edgepairs_((34,_35),_(12,_13)) + edgepairs_((35,_36),_(12,_13))
 - nodepairs_(35,_12) - nodepairs_(35,_13) <= 0
_C2124: edgepairs_((34,_35),_(13,_14)) + edgepairs_((35,_36),_(13,_14))
 - nodepairs_(35,_13) - nodepairs_(35,_14) <= 0
_C2125: edgepairs_((34,_35),_(14,_15)) + edgepairs_((35,_36),_(14,_15))
 - nodepairs_(35,_14) - nodepairs_(35,_15) <= 0
_C2126: edgepairs_((34,_35),_(15,_16)) + edgepairs_((35,_36),_(15,_16))
 - nodepairs_(35,_15) - nodepairs_(35,_16) <= 0
_C2127: - nodepairs_(35,_17) <= 0
_C2128: - nodepairs_(35,_19) <= 0
_C2129: - nodepairs_(35,_19) <= 0
_C213: edgepairs_((0,_1),_(48,_49)) + edgepairs_((0,_26),_(48,_49))
 + edgepairs_((10,_11),_(48,_49)) + edgepairs_((11,_12),_(48,_49))
 + edgepairs_((12,_13),_(48,_49)) + edgepairs_((13,_14),_(48,_49))
 + edgepairs_((14,_15),_(48,_49)) + edgepairs_((15,_16),_(48,_49))
 + edgepairs_((16,_17),_(48,_49)) + edgepairs_((17,_18),_(48,_49))
 + edgepairs_((18,_19),_(48,_49)) + edgepairs_((19,_20),_(48,_49))
 + edgepairs_((20,_21),_(48,_49)) + edgepairs_((21,_22),_(48,_49))
 + edgepairs_((22,_23),_(48,_49)) + edgepairs_((23,_24),_(48,_49))
 + edgepairs_((23,_25),_(48,_49)) + edgepairs_((28,_30),_(48,_49))
 + edgepairs_((3,_5),_(48,_49)) + edgepairs_((30,_31),_(48,_49))
 + edgepairs_((31,_32),_(48,_49)) + edgepairs_((32,_33),_(48,_49))
 + edgepairs_((33,_34),_(48,_49)) + edgepairs_((34,_35),_(48,_49))
 + edgepairs_((35,_36),_(48,_49)) + edgepairs_((36,_37),_(48,_49))
 + edgepairs_((37,_38),_(48,_49)) + edgepairs_((38,_39),_(48,_49))
 + edgepairs_((39,_40),_(48,_49)) + edgepairs_((40,_41),_(48,_49))
 + edgepairs_((40,_42),_(48,_49)) + edgepairs_((44,_46),_(48,_49))
 + edgepairs_((46,_47),_(48,_49)) + edgepairs_((47,_48),_(48,_49))
 + edgepairs_((48,_49),_(48,_49)) + edgepairs_((49,_50),_(48,_49))
 + edgepairs_((5,_6),_(48,_49)) + edgepairs_((50,_51),_(48,_49))
 + edgepairs_((51,_52),_(48,_49)) + edgepairs_((52,_53),_(48,_49))
 + edgepairs_((53,_54),_(48,_49)) + edgepairs_((6,_7),_(48,_49))
 + edgepairs_((7,_8),_(48,_49)) + edgepairs_((8,_9),_(48,_49))
 + edgepairs_((9,_10),_(48,_49)) + edgepairs_(_1,_(48,_49)) = 1
_C2130: edgepairs_((34,_35),_(19,_21)) + edgepairs_((35,_36),_(19,_21))
 - nodepairs_(35,_19) - nodepairs_(35,_21) <= 0
_C2131: edgepairs_((34,_35),_(21,_22)) + edgepairs_((35,_36),_(21,_22))
 - nodepairs_(35,_21) - nodepairs_(35,_22) <= 0
_C2132: edgepairs_((34,_35),_(22,_23)) + edgepairs_((35,_36),_(22,_23))
 - nodepairs_(35,_22) - nodepairs_(35,_23) <= 0
_C2133: edgepairs_((34,_35),_(23,_24)) + edgepairs_((35,_36),_(23,_24))
 - nodepairs_(35,_23) - nodepairs_(35,_24) <= 0
_C2134: edgepairs_((34,_35),_(24,_25)) + edgepairs_((35,_36),_(24,_25))
 - nodepairs_(35,_24) - nodepairs_(35,_25) <= 0
_C2135: edgepairs_((34,_35),_(25,_26)) + edgepairs_((35,_36),_(25,_26))
 - nodepairs_(35,_25) - nodepairs_(35,_26) <= 0
_C2136: edgepairs_((34,_35),_(26,_27)) + edgepairs_((35,_36),_(26,_27))
 - nodepairs_(35,_26) - nodepairs_(35,_27) <= 0
_C2137: edgepairs_((34,_35),_(27,_28)) + edgepairs_((35,_36),_(27,_28))
 - nodepairs_(35,_27) - nodepairs_(35,_28) <= 0
_C2138: edgepairs_((34,_35),_(28,_29)) + edgepairs_((35,_36),_(28,_29))
 - nodepairs_(35,_28) - nodepairs_(35,_29) <= 0
_C2139: edgepairs_((34,_35),_(29,_30)) + edgepairs_((35,_36),_(29,_30))
 - nodepairs_(35,_29) - nodepairs_(35,_30) <= 0
_C214: edgepairs_((0,_1),_(49,_50)) + edgepairs_((0,_26),_(49,_50))
 + edgepairs_((10,_11),_(49,_50)) + edgepairs_((11,_12),_(49,_50))
 + edgepairs_((12,_13),_(49,_50)) + edgepairs_((13,_14),_(49,_50))
 + edgepairs_((14,_15),_(49,_50)) + edgepairs_((15,_16),_(49,_50))
 + edgepairs_((16,_17),_(49,_50)) + edgepairs_((17,_18),_(49,_50))
 + edgepairs_((18,_19),_(49,_50)) + edgepairs_((19,_20),_(49,_50))
 + edgepairs_((20,_21),_(49,_50)) + edgepairs_((21,_22),_(49,_50))
 + edgepairs_((22,_23),_(49,_50)) + edgepairs_((23,_24),_(49,_50))
 + edgepairs_((23,_25),_(49,_50)) + edgepairs_((28,_30),_(49,_50))
 + edgepairs_((3,_5),_(49,_50)) + edgepairs_((30,_31),_(49,_50))
 + edgepairs_((31,_32),_(49,_50)) + edgepairs_((32,_33),_(49,_50))
 + edgepairs_((33,_34),_(49,_50)) + edgepairs_((34,_35),_(49,_50))
 + edgepairs_((35,_36),_(49,_50)) + edgepairs_((36,_37),_(49,_50))
 + edgepairs_((37,_38),_(49,_50)) + edgepairs_((38,_39),_(49,_50))
 + edgepairs_((39,_40),_(49,_50)) + edgepairs_((40,_41),_(49,_50))
 + edgepairs_((40,_42),_(49,_50)) + edgepairs_((44,_46),_(49,_50))
 + edgepairs_((46,_47),_(49,_50)) + edgepairs_((47,_48),_(49,_50))
 + edgepairs_((48,_49),_(49,_50)) + edgepairs_((49,_50),_(49,_50))
 + edgepairs_((5,_6),_(49,_50)) + edgepairs_((50,_51),_(49,_50))
 + edgepairs_((51,_52),_(49,_50)) + edgepairs_((52,_53),_(49,_50))
 + edgepairs_((53,_54),_(49,_50)) + edgepairs_((6,_7),_(49,_50))
 + edgepairs_((7,_8),_(49,_50)) + edgepairs_((8,_9),_(49,_50))
 + edgepairs_((9,_10),_(49,_50)) + edgepairs_(_1,_(49,_50)) = 1
_C2140: edgepairs_((34,_35),_(30,_31)) + edgepairs_((35,_36),_(30,_31))
 - nodepairs_(35,_30) - nodepairs_(35,_31) <= 0
_C2141: edgepairs_((34,_35),_(31,_32)) + edgepairs_((35,_36),_(31,_32))
 - nodepairs_(35,_31) - nodepairs_(35,_32) <= 0
_C2142: edgepairs_((34,_35),_(32,_33)) + edgepairs_((35,_36),_(32,_33))
 - nodepairs_(35,_32) - nodepairs_(35,_33) <= 0
_C2143: edgepairs_((34,_35),_(33,_34)) + edgepairs_((35,_36),_(33,_34))
 - nodepairs_(35,_33) - nodepairs_(35,_34) <= 0
_C2144: edgepairs_((34,_35),_(34,_35)) + edgepairs_((35,_36),_(34,_35))
 - nodepairs_(35,_34) - nodepairs_(35,_35) <= 0
_C2145: edgepairs_((34,_35),_(35,_36)) + edgepairs_((35,_36),_(35,_36))
 - nodepairs_(35,_35) - nodepairs_(35,_36) <= 0
_C2146: edgepairs_((34,_35),_(36,_37)) + edgepairs_((35,_36),_(36,_37))
 - nodepairs_(35,_36) - nodepairs_(35,_37) <= 0
_C2147: edgepairs_((34,_35),_(37,_38)) + edgepairs_((35,_36),_(37,_38))
 - nodepairs_(35,_37) - nodepairs_(35,_38) <= 0
_C2148: edgepairs_((34,_35),_(37,_39)) + edgepairs_((35,_36),_(37,_39))
 - nodepairs_(35,_37) - nodepairs_(35,_39) <= 0
_C2149: edgepairs_((34,_35),_(39,_40)) + edgepairs_((35,_36),_(39,_40))
 - nodepairs_(35,_39) - nodepairs_(35,_40) <= 0
_C215: edgepairs_((0,_1),_(50,_51)) + edgepairs_((0,_26),_(50,_51))
 + edgepairs_((10,_11),_(50,_51)) + edgepairs_((11,_12),_(50,_51))
 + edgepairs_((12,_13),_(50,_51)) + edgepairs_((13,_14),_(50,_51))
 + edgepairs_((14,_15),_(50,_51)) + edgepairs_((15,_16),_(50,_51))
 + edgepairs_((16,_17),_(50,_51)) + edgepairs_((17,_18),_(50,_51))
 + edgepairs_((18,_19),_(50,_51)) + edgepairs_((19,_20),_(50,_51))
 + edgepairs_((20,_21),_(50,_51)) + edgepairs_((21,_22),_(50,_51))
 + edgepairs_((22,_23),_(50,_51)) + edgepairs_((23,_24),_(50,_51))
 + edgepairs_((23,_25),_(50,_51)) + edgepairs_((28,_30),_(50,_51))
 + edgepairs_((3,_5),_(50,_51)) + edgepairs_((30,_31),_(50,_51))
 + edgepairs_((31,_32),_(50,_51)) + edgepairs_((32,_33),_(50,_51))
 + edgepairs_((33,_34),_(50,_51)) + edgepairs_((34,_35),_(50,_51))
 + edgepairs_((35,_36),_(50,_51)) + edgepairs_((36,_37),_(50,_51))
 + edgepairs_((37,_38),_(50,_51)) + edgepairs_((38,_39),_(50,_51))
 + edgepairs_((39,_40),_(50,_51)) + edgepairs_((40,_41),_(50,_51))
 + edgepairs_((40,_42),_(50,_51)) + edgepairs_((44,_46),_(50,_51))
 + edgepairs_((46,_47),_(50,_51)) + edgepairs_((47,_48),_(50,_51))
 + edgepairs_((48,_49),_(50,_51)) + edgepairs_((49,_50),_(50,_51))
 + edgepairs_((5,_6),_(50,_51)) + edgepairs_((50,_51),_(50,_51))
 + edgepairs_((51,_52),_(50,_51)) + edgepairs_((52,_53),_(50,_51))
 + edgepairs_((53,_54),_(50,_51)) + edgepairs_((6,_7),_(50,_51))
 + edgepairs_((7,_8),_(50,_51)) + edgepairs_((8,_9),_(50,_51))
 + edgepairs_((9,_10),_(50,_51)) + edgepairs_(_1,_(50,_51)) = 1
_C2150: - nodepairs_(35,_42) <= 0
_C2151: - nodepairs_(35,_42) <= 0
_C2152: edgepairs_((34,_35),_(42,_44)) + edgepairs_((35,_36),_(42,_44))
 - nodepairs_(35,_42) - nodepairs_(35,_44) <= 0
_C2153: edgepairs_((34,_35),_(44,_45)) + edgepairs_((35,_36),_(44,_45))
 - nodepairs_(35,_44) - nodepairs_(35,_45) <= 0
_C2154: edgepairs_((34,_35),_(45,_46)) + edgepairs_((35,_36),_(45,_46))
 - nodepairs_(35,_45) - nodepairs_(35,_46) <= 0
_C2155: edgepairs_((34,_35),_(46,_47)) + edgepairs_((35,_36),_(46,_47))
 - nodepairs_(35,_46) - nodepairs_(35,_47) <= 0
_C2156: edgepairs_((34,_35),_(47,_48)) + edgepairs_((35,_36),_(47,_48))
 - nodepairs_(35,_47) - nodepairs_(35,_48) <= 0
_C2157: edgepairs_((34,_35),_(48,_49)) + edgepairs_((35,_36),_(48,_49))
 - nodepairs_(35,_48) - nodepairs_(35,_49) <= 0
_C2158: edgepairs_((34,_35),_(49,_50)) + edgepairs_((35,_36),_(49,_50))
 - nodepairs_(35,_49) - nodepairs_(35,_50) <= 0
_C2159: edgepairs_((34,_35),_(50,_51)) + edgepairs_((35,_36),_(50,_51))
 - nodepairs_(35,_50) - nodepairs_(35,_51) <= 0
_C216: edgepairs_((0,_1),_(51,_52)) + edgepairs_((0,_26),_(51,_52))
 + edgepairs_((10,_11),_(51,_52)) + edgepairs_((11,_12),_(51,_52))
 + edgepairs_((12,_13),_(51,_52)) + edgepairs_((13,_14),_(51,_52))
 + edgepairs_((14,_15),_(51,_52)) + edgepairs_((15,_16),_(51,_52))
 + edgepairs_((16,_17),_(51,_52)) + edgepairs_((17,_18),_(51,_52))
 + edgepairs_((18,_19),_(51,_52)) + edgepairs_((19,_20),_(51,_52))
 + edgepairs_((20,_21),_(51,_52)) + edgepairs_((21,_22),_(51,_52))
 + edgepairs_((22,_23),_(51,_52)) + edgepairs_((23,_24),_(51,_52))
 + edgepairs_((23,_25),_(51,_52)) + edgepairs_((28,_30),_(51,_52))
 + edgepairs_((3,_5),_(51,_52)) + edgepairs_((30,_31),_(51,_52))
 + edgepairs_((31,_32),_(51,_52)) + edgepairs_((32,_33),_(51,_52))
 + edgepairs_((33,_34),_(51,_52)) + edgepairs_((34,_35),_(51,_52))
 + edgepairs_((35,_36),_(51,_52)) + edgepairs_((36,_37),_(51,_52))
 + edgepairs_((37,_38),_(51,_52)) + edgepairs_((38,_39),_(51,_52))
 + edgepairs_((39,_40),_(51,_52)) + edgepairs_((40,_41),_(51,_52))
 + edgepairs_((40,_42),_(51,_52)) + edgepairs_((44,_46),_(51,_52))
 + edgepairs_((46,_47),_(51,_52)) + edgepairs_((47,_48),_(51,_52))
 + edgepairs_((48,_49),_(51,_52)) + edgepairs_((49,_50),_(51,_52))
 + edgepairs_((5,_6),_(51,_52)) + edgepairs_((50,_51),_(51,_52))
 + edgepairs_((51,_52),_(51,_52)) + edgepairs_((52,_53),_(51,_52))
 + edgepairs_((53,_54),_(51,_52)) + edgepairs_((6,_7),_(51,_52))
 + edgepairs_((7,_8),_(51,_52)) + edgepairs_((8,_9),_(51,_52))
 + edgepairs_((9,_10),_(51,_52)) + edgepairs_(_1,_(51,_52)) = 1
_C2160: edgepairs_((34,_35),_(51,_52)) + edgepairs_((35,_36),_(51,_52))
 - nodepairs_(35,_51) - nodepairs_(35,_52) <= 0
_C2161: edgepairs_((34,_35),_(52,_53)) + edgepairs_((35,_36),_(52,_53))
 - nodepairs_(35,_52) - nodepairs_(35,_53) <= 0
_C2162: edgepairs_((34,_35),_(53,_54)) + edgepairs_((35,_36),_(53,_54))
 - nodepairs_(35,_53) - nodepairs_(35,_54) <= 0
_C2163: edgepairs_((35,_36),_(0,_1)) + edgepairs_((36,_37),_(0,_1))
 - nodepairs_(36,_0) - nodepairs_(36,_1) <= 0
_C2164: edgepairs_((35,_36),_(0,_17)) + edgepairs_((36,_37),_(0,_17))
 - nodepairs_(36,_0) - nodepairs_(36,_17) <= 0
_C2165: - nodepairs_(36,_0) <= 0
_C2166: - nodepairs_(36,_1) <= 0
_C2167: - nodepairs_(36,_3) <= 0
_C2168: - nodepairs_(36,_3) <= 0
_C2169: edgepairs_((35,_36),_(3,_5)) + edgepairs_((36,_37),_(3,_5))
 - nodepairs_(36,_3) - nodepairs_(36,_5) <= 0
_C217: edgepairs_((0,_1),_(52,_53)) + edgepairs_((0,_26),_(52,_53))
 + edgepairs_((10,_11),_(52,_53)) + edgepairs_((11,_12),_(52,_53))
 + edgepairs_((12,_13),_(52,_53)) + edgepairs_((13,_14),_(52,_53))
 + edgepairs_((14,_15),_(52,_53)) + edgepairs_((15,_16),_(52,_53))
 + edgepairs_((16,_17),_(52,_53)) + edgepairs_((17,_18),_(52,_53))
 + edgepairs_((18,_19),_(52,_53)) + edgepairs_((19,_20),_(52,_53))
 + edgepairs_((20,_21),_(52,_53)) + edgepairs_((21,_22),_(52,_53))
 + edgepairs_((22,_23),_(52,_53)) + edgepairs_((23,_24),_(52,_53))
 + edgepairs_((23,_25),_(52,_53)) + edgepairs_((28,_30),_(52,_53))
 + edgepairs_((3,_5),_(52,_53)) + edgepairs_((30,_31),_(52,_53))
 + edgepairs_((31,_32),_(52,_53)) + edgepairs_((32,_33),_(52,_53))
 + edgepairs_((33,_34),_(52,_53)) + edgepairs_((34,_35),_(52,_53))
 + edgepairs_((35,_36),_(52,_53)) + edgepairs_((36,_37),_(52,_53))
 + edgepairs_((37,_38),_(52,_53)) + edgepairs_((38,_39),_(52,_53))
 + edgepairs_((39,_40),_(52,_53)) + edgepairs_((40,_41),_(52,_53))
 + edgepairs_((40,_42),_(52,_53)) + edgepairs_((44,_46),_(52,_53))
 + edgepairs_((46,_47),_(52,_53)) + edgepairs_((47,_48),_(52,_53))
 + edgepairs_((48,_49),_(52,_53)) + edgepairs_((49,_50),_(52,_53))
 + edgepairs_((5,_6),_(52,_53)) + edgepairs_((50,_51),_(52,_53))
 + edgepairs_((51,_52),_(52,_53)) + edgepairs_((52,_53),_(52,_53))
 + edgepairs_((53,_54),_(52,_53)) + edgepairs_((6,_7),_(52,_53))
 + edgepairs_((7,_8),_(52,_53)) + edgepairs_((8,_9),_(52,_53))
 + edgepairs_((9,_10),_(52,_53)) + edgepairs_(_1,_(52,_53)) = 1
_C2170: edgepairs_((35,_36),_(5,_6)) + edgepairs_((36,_37),_(5,_6))
 - nodepairs_(36,_5) - nodepairs_(36,_6) <= 0
_C2171: edgepairs_((35,_36),_(6,_7)) + edgepairs_((36,_37),_(6,_7))
 - nodepairs_(36,_6) - nodepairs_(36,_7) <= 0
_C2172: edgepairs_((35,_36),_(7,_8)) + edgepairs_((36,_37),_(7,_8))
 - nodepairs_(36,_7) - nodepairs_(36,_8) <= 0
_C2173: edgepairs_((35,_36),_(8,_9)) + edgepairs_((36,_37),_(8,_9))
 - nodepairs_(36,_8) - nodepairs_(36,_9) <= 0
_C2174: edgepairs_((35,_36),_(9,_10)) + edgepairs_((36,_37),_(9,_10))
 - nodepairs_(36,_10) - nodepairs_(36,_9) <= 0
_C2175: edgepairs_((35,_36),_(10,_11)) + edgepairs_((36,_37),_(10,_11))
 - nodepairs_(36,_10) - nodepairs_(36,_11) <= 0
_C2176: edgepairs_((35,_36),_(11,_12)) + edgepairs_((36,_37),_(11,_12))
 - nodepairs_(36,_11) - nodepairs_(36,_12) <= 0
_C2177: edgepairs_((35,_36),_(12,_13)) + edgepairs_((36,_37),_(12,_13))
 - nodepairs_(36,_12) - nodepairs_(36,_13) <= 0
_C2178: edgepairs_((35,_36),_(13,_14)) + edgepairs_((36,_37),_(13,_14))
 - nodepairs_(36,_13) - nodepairs_(36,_14) <= 0
_C2179: edgepairs_((35,_36),_(14,_15)) + edgepairs_((36,_37),_(14,_15))
 - nodepairs_(36,_14) - nodepairs_(36,_15) <= 0
_C218: edgepairs_((0,_1),_(53,_54)) + edgepairs_((0,_26),_(53,_54))
 + edgepairs_((10,_11),_(53,_54)) + edgepairs_((11,_12),_(53,_54))
 + edgepairs_((12,_13),_(53,_54)) + edgepairs_((13,_14),_(53,_54))
 + edgepairs_((14,_15),_(53,_54)) + edgepairs_((15,_16),_(53,_54))
 + edgepairs_((16,_17),_(53,_54)) + edgepairs_((17,_18),_(53,_54))
 + edgepairs_((18,_19),_(53,_54)) + edgepairs_((19,_20),_(53,_54))
 + edgepairs_((20,_21),_(53,_54)) + edgepairs_((21,_22),_(53,_54))
 + edgepairs_((22,_23),_(53,_54)) + edgepairs_((23,_24),_(53,_54))
 + edgepairs_((23,_25),_(53,_54)) + edgepairs_((28,_30),_(53,_54))
 + edgepairs_((3,_5),_(53,_54)) + edgepairs_((30,_31),_(53,_54))
 + edgepairs_((31,_32),_(53,_54)) + edgepairs_((32,_33),_(53,_54))
 + edgepairs_((33,_34),_(53,_54)) + edgepairs_((34,_35),_(53,_54))
 + edgepairs_((35,_36),_(53,_54)) + edgepairs_((36,_37),_(53,_54))
 + edgepairs_((37,_38),_(53,_54)) + edgepairs_((38,_39),_(53,_54))
 + edgepairs_((39,_40),_(53,_54)) + edgepairs_((40,_41),_(53,_54))
 + edgepairs_((40,_42),_(53,_54)) + edgepairs_((44,_46),_(53,_54))
 + edgepairs_((46,_47),_(53,_54)) + edgepairs_((47,_48),_(53,_54))
 + edgepairs_((48,_49),_(53,_54)) + edgepairs_((49,_50),_(53,_54))
 + edgepairs_((5,_6),_(53,_54)) + edgepairs_((50,_51),_(53,_54))
 + edgepairs_((51,_52),_(53,_54)) + edgepairs_((52,_53),_(53,_54))
 + edgepairs_((53,_54),_(53,_54)) + edgepairs_((6,_7),_(53,_54))
 + edgepairs_((7,_8),_(53,_54)) + edgepairs_((8,_9),_(53,_54))
 + edgepairs_((9,_10),_(53,_54)) + edgepairs_(_1,_(53,_54)) = 1
_C2180: edgepairs_((35,_36),_(15,_16)) + edgepairs_((36,_37),_(15,_16))
 - nodepairs_(36,_15) - nodepairs_(36,_16) <= 0
_C2181: - nodepairs_(36,_17) <= 0
_C2182: - nodepairs_(36,_19) <= 0
_C2183: - nodepairs_(36,_19) <= 0
_C2184: edgepairs_((35,_36),_(19,_21)) + edgepairs_((36,_37),_(19,_21))
 - nodepairs_(36,_19) - nodepairs_(36,_21) <= 0
_C2185: edgepairs_((35,_36),_(21,_22)) + edgepairs_((36,_37),_(21,_22))
 - nodepairs_(36,_21) - nodepairs_(36,_22) <= 0
_C2186: edgepairs_((35,_36),_(22,_23)) + edgepairs_((36,_37),_(22,_23))
 - nodepairs_(36,_22) - nodepairs_(36,_23) <= 0
_C2187: edgepairs_((35,_36),_(23,_24)) + edgepairs_((36,_37),_(23,_24))
 - nodepairs_(36,_23) - nodepairs_(36,_24) <= 0
_C2188: edgepairs_((35,_36),_(24,_25)) + edgepairs_((36,_37),_(24,_25))
 - nodepairs_(36,_24) - nodepairs_(36,_25) <= 0
_C2189: edgepairs_((35,_36),_(25,_26)) + edgepairs_((36,_37),_(25,_26))
 - nodepairs_(36,_25) - nodepairs_(36,_26) <= 0
_C219: edgepairs_((0,_1),_(0,_1)) + edgepairs_((0,_26),_(0,_1))
 - nodepairs_(0,_0) - nodepairs_(0,_1) <= 0
_C2190: edgepairs_((35,_36),_(26,_27)) + edgepairs_((36,_37),_(26,_27))
 - nodepairs_(36,_26) - nodepairs_(36,_27) <= 0
_C2191: edgepairs_((35,_36),_(27,_28)) + edgepairs_((36,_37),_(27,_28))
 - nodepairs_(36,_27) - nodepairs_(36,_28) <= 0
_C2192: edgepairs_((35,_36),_(28,_29)) + edgepairs_((36,_37),_(28,_29))
 - nodepairs_(36,_28) - nodepairs_(36,_29) <= 0
_C2193: edgepairs_((35,_36),_(29,_30)) + edgepairs_((36,_37),_(29,_30))
 - nodepairs_(36,_29) - nodepairs_(36,_30) <= 0
_C2194: edgepairs_((35,_36),_(30,_31)) + edgepairs_((36,_37),_(30,_31))
 - nodepairs_(36,_30) - nodepairs_(36,_31) <= 0
_C2195: edgepairs_((35,_36),_(31,_32)) + edgepairs_((36,_37),_(31,_32))
 - nodepairs_(36,_31) - nodepairs_(36,_32) <= 0
_C2196: edgepairs_((35,_36),_(32,_33)) + edgepairs_((36,_37),_(32,_33))
 - nodepairs_(36,_32) - nodepairs_(36,_33) <= 0
_C2197: edgepairs_((35,_36),_(33,_34)) + edgepairs_((36,_37),_(33,_34))
 - nodepairs_(36,_33) - nodepairs_(36,_34) <= 0
_C2198: edgepairs_((35,_36),_(34,_35)) + edgepairs_((36,_37),_(34,_35))
 - nodepairs_(36,_34) - nodepairs_(36,_35) <= 0
_C2199: edgepairs_((35,_36),_(35,_36)) + edgepairs_((36,_37),_(35,_36))
 - nodepairs_(36,_35) - nodepairs_(36,_36) <= 0
_C22: nodepairs_(21,_0) + nodepairs_(21,_1) + nodepairs_(21,_10)
 + nodepairs_(21,_11) + nodepairs_(21,_12) + nodepairs_(21,_13)
 + nodepairs_(21,_14) + nodepairs_(21,_15) + nodepairs_(21,_16)
 + nodepairs_(21,_17) + nodepairs_(21,_19) + nodepairs_(21,_21)
 + nodepairs_(21,_22) + nodepairs_(21,_23) + nodepairs_(21,_24)
 + nodepairs_(21,_25) + nodepairs_(21,_26) + nodepairs_(21,_27)
 + nodepairs_(21,_28) + nodepairs_(21,_29) + nodepairs_(21,_3)
 + nodepairs_(21,_30) + nodepairs_(21,_31) + nodepairs_(21,_32)
 + nodepairs_(21,_33) + nodepairs_(21,_34) + nodepairs_(21,_35)
 + nodepairs_(21,_36) + nodepairs_(21,_37) + nodepairs_(21,_38)
 + nodepairs_(21,_39) + nodepairs_(21,_40) + nodepairs_(21,_42)
 + nodepairs_(21,_44) + nodepairs_(21,_45) + nodepairs_(21,_46)
 + nodepairs_(21,_47) + nodepairs_(21,_48) + nodepairs_(21,_49)
 + nodepairs_(21,_5) + nodepairs_(21,_50) + nodepairs_(21,_51)
 + nodepairs_(21,_52) + nodepairs_(21,_53) + nodepairs_(21,_54)
 + nodepairs_(21,_6) + nodepairs_(21,_7) + nodepairs_(21,_8)
 + nodepairs_(21,_9) <= 1
_C220: edgepairs_((0,_1),_(0,_17)) + edgepairs_((0,_26),_(0,_17))
 - nodepairs_(0,_0) - nodepairs_(0,_17) <= 0
_C2200: edgepairs_((35,_36),_(36,_37)) + edgepairs_((36,_37),_(36,_37))
 - nodepairs_(36,_36) - nodepairs_(36,_37) <= 0
_C2201: edgepairs_((35,_36),_(37,_38)) + edgepairs_((36,_37),_(37,_38))
 - nodepairs_(36,_37) - nodepairs_(36,_38) <= 0
_C2202: edgepairs_((35,_36),_(37,_39)) + edgepairs_((36,_37),_(37,_39))
 - nodepairs_(36,_37) - nodepairs_(36,_39) <= 0
_C2203: edgepairs_((35,_36),_(39,_40)) + edgepairs_((36,_37),_(39,_40))
 - nodepairs_(36,_39) - nodepairs_(36,_40) <= 0
_C2204: - nodepairs_(36,_42) <= 0
_C2205: - nodepairs_(36,_42) <= 0
_C2206: edgepairs_((35,_36),_(42,_44)) + edgepairs_((36,_37),_(42,_44))
 - nodepairs_(36,_42) - nodepairs_(36,_44) <= 0
_C2207: edgepairs_((35,_36),_(44,_45)) + edgepairs_((36,_37),_(44,_45))
 - nodepairs_(36,_44) - nodepairs_(36,_45) <= 0
_C2208: edgepairs_((35,_36),_(45,_46)) + edgepairs_((36,_37),_(45,_46))
 - nodepairs_(36,_45) - nodepairs_(36,_46) <= 0
_C2209: edgepairs_((35,_36),_(46,_47)) + edgepairs_((36,_37),_(46,_47))
 - nodepairs_(36,_46) - nodepairs_(36,_47) <= 0
_C221: edgepairs_((0,_43),_(0,_41)) - nodepairs_(0,_0) <= 0
_C2210: edgepairs_((35,_36),_(47,_48)) + edgepairs_((36,_37),_(47,_48))
 - nodepairs_(36,_47) - nodepairs_(36,_48) <= 0
_C2211: edgepairs_((35,_36),_(48,_49)) + edgepairs_((36,_37),_(48,_49))
 - nodepairs_(36,_48) - nodepairs_(36,_49) <= 0
_C2212: edgepairs_((35,_36),_(49,_50)) + edgepairs_((36,_37),_(49,_50))
 - nodepairs_(36,_49) - nodepairs_(36,_50) <= 0
_C2213: edgepairs_((35,_36),_(50,_51)) + edgepairs_((36,_37),_(50,_51))
 - nodepairs_(36,_50) - nodepairs_(36,_51) <= 0
_C2214: edgepairs_((35,_36),_(51,_52)) + edgepairs_((36,_37),_(51,_52))
 - nodepairs_(36,_51) - nodepairs_(36,_52) <= 0
_C2215: edgepairs_((35,_36),_(52,_53)) + edgepairs_((36,_37),_(52,_53))
 - nodepairs_(36,_52) - nodepairs_(36,_53) <= 0
_C2216: edgepairs_((35,_36),_(53,_54)) + edgepairs_((36,_37),_(53,_54))
 - nodepairs_(36,_53) - nodepairs_(36,_54) <= 0
_C2217: edgepairs_((36,_37),_(0,_1)) + edgepairs_((37,_38),_(0,_1))
 - nodepairs_(37,_0) - nodepairs_(37,_1) <= 0
_C2218: edgepairs_((36,_37),_(0,_17)) + edgepairs_((37,_38),_(0,_17))
 - nodepairs_(37,_0) - nodepairs_(37,_17) <= 0
_C2219: - nodepairs_(37,_0) <= 0
_C222: edgepairs_((0,_43),_(1,_2)) - nodepairs_(0,_1) <= 0
_C2220: - nodepairs_(37,_1) <= 0
_C2221: - nodepairs_(37,_3) <= 0
_C2222: - nodepairs_(37,_3) <= 0
_C2223: edgepairs_((36,_37),_(3,_5)) + edgepairs_((37,_38),_(3,_5))
 - nodepairs_(37,_3) - nodepairs_(37,_5) <= 0
_C2224: edgepairs_((36,_37),_(5,_6)) + edgepairs_((37,_38),_(5,_6))
 - nodepairs_(37,_5) - nodepairs_(37,_6) <= 0
_C2225: edgepairs_((36,_37),_(6,_7)) + edgepairs_((37,_38),_(6,_7))
 - nodepairs_(37,_6) - nodepairs_(37,_7) <= 0
_C2226: edgepairs_((36,_37),_(7,_8)) + edgepairs_((37,_38),_(7,_8))
 - nodepairs_(37,_7) - nodepairs_(37,_8) <= 0
_C2227: edgepairs_((36,_37),_(8,_9)) + edgepairs_((37,_38),_(8,_9))
 - nodepairs_(37,_8) - nodepairs_(37,_9) <= 0
_C2228: edgepairs_((36,_37),_(9,_10)) + edgepairs_((37,_38),_(9,_10))
 - nodepairs_(37,_10) - nodepairs_(37,_9) <= 0
_C2229: edgepairs_((36,_37),_(10,_11)) + edgepairs_((37,_38),_(10,_11))
 - nodepairs_(37,_10) - nodepairs_(37,_11) <= 0
_C223: edgepairs_((0,_43),_(2,_3)) - nodepairs_(0,_3) <= 0
_C2230: edgepairs_((36,_37),_(11,_12)) + edgepairs_((37,_38),_(11,_12))
 - nodepairs_(37,_11) - nodepairs_(37,_12) <= 0
_C2231: edgepairs_((36,_37),_(12,_13)) + edgepairs_((37,_38),_(12,_13))
 - nodepairs_(37,_12) - nodepairs_(37,_13) <= 0
_C2232: edgepairs_((36,_37),_(13,_14)) + edgepairs_((37,_38),_(13,_14))
 - nodepairs_(37,_13) - nodepairs_(37,_14) <= 0
_C2233: edgepairs_((36,_37),_(14,_15)) + edgepairs_((37,_38),_(14,_15))
 - nodepairs_(37,_14) - nodepairs_(37,_15) <= 0
_C2234: edgepairs_((36,_37),_(15,_16)) + edgepairs_((37,_38),_(15,_16))
 - nodepairs_(37,_15) - nodepairs_(37,_16) <= 0
_C2235: - nodepairs_(37,_17) <= 0
_C2236: - nodepairs_(37,_19) <= 0
_C2237: - nodepairs_(37,_19) <= 0
_C2238: edgepairs_((36,_37),_(19,_21)) + edgepairs_((37,_38),_(19,_21))
 - nodepairs_(37,_19) - nodepairs_(37,_21) <= 0
_C2239: edgepairs_((36,_37),_(21,_22)) + edgepairs_((37,_38),_(21,_22))
 - nodepairs_(37,_21) - nodepairs_(37,_22) <= 0
_C224: edgepairs_((0,_43),_(3,_4)) - nodepairs_(0,_3) <= 0
_C2240: edgepairs_((36,_37),_(22,_23)) + edgepairs_((37,_38),_(22,_23))
 - nodepairs_(37,_22) - nodepairs_(37,_23) <= 0
_C2241: edgepairs_((36,_37),_(23,_24)) + edgepairs_((37,_38),_(23,_24))
 - nodepairs_(37,_23) - nodepairs_(37,_24) <= 0
_C2242: edgepairs_((36,_37),_(24,_25)) + edgepairs_((37,_38),_(24,_25))
 - nodepairs_(37,_24) - nodepairs_(37,_25) <= 0
_C2243: edgepairs_((36,_37),_(25,_26)) + edgepairs_((37,_38),_(25,_26))
 - nodepairs_(37,_25) - nodepairs_(37,_26) <= 0
_C2244: edgepairs_((36,_37),_(26,_27)) + edgepairs_((37,_38),_(26,_27))
 - nodepairs_(37,_26) - nodepairs_(37,_27) <= 0
_C2245: edgepairs_((36,_37),_(27,_28)) + edgepairs_((37,_38),_(27,_28))
 - nodepairs_(37,_27) - nodepairs_(37,_28) <= 0
_C2246: edgepairs_((36,_37),_(28,_29)) + edgepairs_((37,_38),_(28,_29))
 - nodepairs_(37,_28) - nodepairs_(37,_29) <= 0
_C2247: edgepairs_((36,_37),_(29,_30)) + edgepairs_((37,_38),_(29,_30))
 - nodepairs_(37,_29) - nodepairs_(37,_30) <= 0
_C2248: edgepairs_((36,_37),_(30,_31)) + edgepairs_((37,_38),_(30,_31))
 - nodepairs_(37,_30) - nodepairs_(37,_31) <= 0
_C2249: edgepairs_((36,_37),_(31,_32)) + edgepairs_((37,_38),_(31,_32))
 - nodepairs_(37,_31) - nodepairs_(37,_32) <= 0
_C225: edgepairs_((0,_1),_(3,_5)) + edgepairs_((0,_26),_(3,_5))
 - nodepairs_(0,_3) - nodepairs_(0,_5) <= 0
_C2250: edgepairs_((36,_37),_(32,_33)) + edgepairs_((37,_38),_(32,_33))
 - nodepairs_(37,_32) - nodepairs_(37,_33) <= 0
_C2251: edgepairs_((36,_37),_(33,_34)) + edgepairs_((37,_38),_(33,_34))
 - nodepairs_(37,_33) - nodepairs_(37,_34) <= 0
_C2252: edgepairs_((36,_37),_(34,_35)) + edgepairs_((37,_38),_(34,_35))
 - nodepairs_(37,_34) - nodepairs_(37,_35) <= 0
_C2253: edgepairs_((36,_37),_(35,_36)) + edgepairs_((37,_38),_(35,_36))
 - nodepairs_(37,_35) - nodepairs_(37,_36) <= 0
_C2254: edgepairs_((36,_37),_(36,_37)) + edgepairs_((37,_38),_(36,_37))
 - nodepairs_(37,_36) - nodepairs_(37,_37) <= 0
_C2255: edgepairs_((36,_37),_(37,_38)) + edgepairs_((37,_38),_(37,_38))
 - nodepairs_(37,_37) - nodepairs_(37,_38) <= 0
_C2256: edgepairs_((36,_37),_(37,_39)) + edgepairs_((37,_38),_(37,_39))
 - nodepairs_(37,_37) - nodepairs_(37,_39) <= 0
_C2257: edgepairs_((36,_37),_(39,_40)) + edgepairs_((37,_38),_(39,_40))
 - nodepairs_(37,_39) - nodepairs_(37,_40) <= 0
_C2258: - nodepairs_(37,_42) <= 0
_C2259: - nodepairs_(37,_42) <= 0
_C226: edgepairs_((0,_1),_(5,_6)) + edgepairs_((0,_26),_(5,_6))
 - nodepairs_(0,_5) - nodepairs_(0,_6) <= 0
_C2260: edgepairs_((36,_37),_(42,_44)) + edgepairs_((37,_38),_(42,_44))
 - nodepairs_(37,_42) - nodepairs_(37,_44) <= 0
_C2261: edgepairs_((36,_37),_(44,_45)) + edgepairs_((37,_38),_(44,_45))
 - nodepairs_(37,_44) - nodepairs_(37,_45) <= 0
_C2262: edgepairs_((36,_37),_(45,_46)) + edgepairs_((37,_38),_(45,_46))
 - nodepairs_(37,_45) - nodepairs_(37,_46) <= 0
_C2263: edgepairs_((36,_37),_(46,_47)) + edgepairs_((37,_38),_(46,_47))
 - nodepairs_(37,_46) - nodepairs_(37,_47) <= 0
_C2264: edgepairs_((36,_37),_(47,_48)) + edgepairs_((37,_38),_(47,_48))
 - nodepairs_(37,_47) - nodepairs_(37,_48) <= 0
_C2265: edgepairs_((36,_37),_(48,_49)) + edgepairs_((37,_38),_(48,_49))
 - nodepairs_(37,_48) - nodepairs_(37,_49) <= 0
_C2266: edgepairs_((36,_37),_(49,_50)) + edgepairs_((37,_38),_(49,_50))
 - nodepairs_(37,_49) - nodepairs_(37,_50) <= 0
_C2267: edgepairs_((36,_37),_(50,_51)) + edgepairs_((37,_38),_(50,_51))
 - nodepairs_(37,_50) - nodepairs_(37,_51) <= 0
_C2268: edgepairs_((36,_37),_(51,_52)) + edgepairs_((37,_38),_(51,_52))
 - nodepairs_(37,_51) - nodepairs_(37,_52) <= 0
_C2269: edgepairs_((36,_37),_(52,_53)) + edgepairs_((37,_38),_(52,_53))
 - nodepairs_(37,_52) - nodepairs_(37,_53) <= 0
_C227: edgepairs_((0,_1),_(6,_7)) + edgepairs_((0,_26),_(6,_7))
 - nodepairs_(0,_6) - nodepairs_(0,_7) <= 0
_C2270: edgepairs_((36,_37),_(53,_54)) + edgepairs_((37,_38),_(53,_54))
 - nodepairs_(37,_53) - nodepairs_(37,_54) <= 0
_C2271: edgepairs_((37,_38),_(0,_1)) + edgepairs_((38,_39),_(0,_1))
 - nodepairs_(38,_0) - nodepairs_(38,_1) <= 0
_C2272: edgepairs_((37,_38),_(0,_17)) + edgepairs_((38,_39),_(0,_17))
 - nodepairs_(38,_0) - nodepairs_(38,_17) <= 0
_C2273: - nodepairs_(38,_0) <= 0
_C2274: - nodepairs_(38,_1) <= 0
_C2275: - nodepairs_(38,_3) <= 0
_C2276: - nodepairs_(38,_3) <= 0
_C2277: edgepairs_((37,_38),_(3,_5)) + edgepairs_((38,_39),_(3,_5))
 - nodepairs_(38,_3) - nodepairs_(38,_5) <= 0
_C2278: edgepairs_((37,_38),_(5,_6)) + edgepairs_((38,_39),_(5,_6))
 - nodepairs_(38,_5) - nodepairs_(38,_6) <= 0
_C2279: edgepairs_((37,_38),_(6,_7)) + edgepairs_((38,_39),_(6,_7))
 - nodepairs_(38,_6) - nodepairs_(38,_7) <= 0
_C228: edgepairs_((0,_1),_(7,_8)) + edgepairs_((0,_26),_(7,_8))
 - nodepairs_(0,_7) - nodepairs_(0,_8) <= 0
_C2280: edgepairs_((37,_38),_(7,_8)) + edgepairs_((38,_39),_(7,_8))
 - nodepairs_(38,_7) - nodepairs_(38,_8) <= 0
_C2281: edgepairs_((37,_38),_(8,_9)) + edgepairs_((38,_39),_(8,_9))
 - nodepairs_(38,_8) - nodepairs_(38,_9) <= 0
_C2282: edgepairs_((37,_38),_(9,_10)) + edgepairs_((38,_39),_(9,_10))
 - nodepairs_(38,_10) - nodepairs_(38,_9) <= 0
_C2283: edgepairs_((37,_38),_(10,_11)) + edgepairs_((38,_39),_(10,_11))
 - nodepairs_(38,_10) - nodepairs_(38,_11) <= 0
_C2284: edgepairs_((37,_38),_(11,_12)) + edgepairs_((38,_39),_(11,_12))
 - nodepairs_(38,_11) - nodepairs_(38,_12) <= 0
_C2285: edgepairs_((37,_38),_(12,_13)) + edgepairs_((38,_39),_(12,_13))
 - nodepairs_(38,_12) - nodepairs_(38,_13) <= 0
_C2286: edgepairs_((37,_38),_(13,_14)) + edgepairs_((38,_39),_(13,_14))
 - nodepairs_(38,_13) - nodepairs_(38,_14) <= 0
_C2287: edgepairs_((37,_38),_(14,_15)) + edgepairs_((38,_39),_(14,_15))
 - nodepairs_(38,_14) - nodepairs_(38,_15) <= 0
_C2288: edgepairs_((37,_38),_(15,_16)) + edgepairs_((38,_39),_(15,_16))
 - nodepairs_(38,_15) - nodepairs_(38,_16) <= 0
_C2289: - nodepairs_(38,_17) <= 0
_C229: edgepairs_((0,_1),_(8,_9)) + edgepairs_((0,_26),_(8,_9))
 - nodepairs_(0,_8) - nodepairs_(0,_9) <= 0
_C2290: - nodepairs_(38,_19) <= 0
_C2291: - nodepairs_(38,_19) <= 0
_C2292: edgepairs_((37,_38),_(19,_21)) + edgepairs_((38,_39),_(19,_21))
 - nodepairs_(38,_19) - nodepairs_(38,_21) <= 0
_C2293: edgepairs_((37,_38),_(21,_22)) + edgepairs_((38,_39),_(21,_22))
 - nodepairs_(38,_21) - nodepairs_(38,_22) <= 0
_C2294: edgepairs_((37,_38),_(22,_23)) + edgepairs_((38,_39),_(22,_23))
 - nodepairs_(38,_22) - nodepairs_(38,_23) <= 0
_C2295: edgepairs_((37,_38),_(23,_24)) + edgepairs_((38,_39),_(23,_24))
 - nodepairs_(38,_23) - nodepairs_(38,_24) <= 0
_C2296: edgepairs_((37,_38),_(24,_25)) + edgepairs_((38,_39),_(24,_25))
 - nodepairs_(38,_24) - nodepairs_(38,_25) <= 0
_C2297: edgepairs_((37,_38),_(25,_26)) + edgepairs_((38,_39),_(25,_26))
 - nodepairs_(38,_25) - nodepairs_(38,_26) <= 0
_C2298: edgepairs_((37,_38),_(26,_27)) + edgepairs_((38,_39),_(26,_27))
 - nodepairs_(38,_26) - nodepairs_(38,_27) <= 0
_C2299: edgepairs_((37,_38),_(27,_28)) + edgepairs_((38,_39),_(27,_28))
 - nodepairs_(38,_27) - nodepairs_(38,_28) <= 0
_C23: nodepairs_(22,_0) + nodepairs_(22,_1) + nodepairs_(22,_10)
 + nodepairs_(22,_11) + nodepairs_(22,_12) + nodepairs_(22,_13)
 + nodepairs_(22,_14) + nodepairs_(22,_15) + nodepairs_(22,_16)
 + nodepairs_(22,_17) + nodepairs_(22,_19) + nodepairs_(22,_21)
 + nodepairs_(22,_22) + nodepairs_(22,_23) + nodepairs_(22,_24)
 + nodepairs_(22,_25) + nodepairs_(22,_26) + nodepairs_(22,_27)
 + nodepairs_(22,_28) + nodepairs_(22,_29) + nodepairs_(22,_3)
 + nodepairs_(22,_30) + nodepairs_(22,_31) + nodepairs_(22,_32)
 + nodepairs_(22,_33) + nodepairs_(22,_34) + nodepairs_(22,_35)
 + nodepairs_(22,_36) + nodepairs_(22,_37) + nodepairs_(22,_38)
 + nodepairs_(22,_39) + nodepairs_(22,_40) + nodepairs_(22,_42)
 + nodepairs_(22,_44) + nodepairs_(22,_45) + nodepairs_(22,_46)
 + nodepairs_(22,_47) + nodepairs_(22,_48) + nodepairs_(22,_49)
 + nodepairs_(22,_5) + nodepairs_(22,_50) + nodepairs_(22,_51)
 + nodepairs_(22,_52) + nodepairs_(22,_53) + nodepairs_(22,_54)
 + nodepairs_(22,_6) + nodepairs_(22,_7) + nodepairs_(22,_8)
 + nodepairs_(22,_9) <= 1
_C230: edgepairs_((0,_1),_(9,_10)) + edgepairs_((0,_26),_(9,_10))
 - nodepairs_(0,_10) - nodepairs_(0,_9) <= 0
_C2300: edgepairs_((37,_38),_(28,_29)) + edgepairs_((38,_39),_(28,_29))
 - nodepairs_(38,_28) - nodepairs_(38,_29) <= 0
_C2301: edgepairs_((37,_38),_(29,_30)) + edgepairs_((38,_39),_(29,_30))
 - nodepairs_(38,_29) - nodepairs_(38,_30) <= 0
_C2302: edgepairs_((37,_38),_(30,_31)) + edgepairs_((38,_39),_(30,_31))
 - nodepairs_(38,_30) - nodepairs_(38,_31) <= 0
_C2303: edgepairs_((37,_38),_(31,_32)) + edgepairs_((38,_39),_(31,_32))
 - nodepairs_(38,_31) - nodepairs_(38,_32) <= 0
_C2304: edgepairs_((37,_38),_(32,_33)) + edgepairs_((38,_39),_(32,_33))
 - nodepairs_(38,_32) - nodepairs_(38,_33) <= 0
_C2305: edgepairs_((37,_38),_(33,_34)) + edgepairs_((38,_39),_(33,_34))
 - nodepairs_(38,_33) - nodepairs_(38,_34) <= 0
_C2306: edgepairs_((37,_38),_(34,_35)) + edgepairs_((38,_39),_(34,_35))
 - nodepairs_(38,_34) - nodepairs_(38,_35) <= 0
_C2307: edgepairs_((37,_38),_(35,_36)) + edgepairs_((38,_39),_(35,_36))
 - nodepairs_(38,_35) - nodepairs_(38,_36) <= 0
_C2308: edgepairs_((37,_38),_(36,_37)) + edgepairs_((38,_39),_(36,_37))
 - nodepairs_(38,_36) - nodepairs_(38,_37) <= 0
_C2309: edgepairs_((37,_38),_(37,_38)) + edgepairs_((38,_39),_(37,_38))
 - nodepairs_(38,_37) - nodepairs_(38,_38) <= 0
_C231: edgepairs_((0,_1),_(10,_11)) + edgepairs_((0,_26),_(10,_11))
 - nodepairs_(0,_10) - nodepairs_(0,_11) <= 0
_C2310: edgepairs_((37,_38),_(37,_39)) + edgepairs_((38,_39),_(37,_39))
 - nodepairs_(38,_37) - nodepairs_(38,_39) <= 0
_C2311: edgepairs_((37,_38),_(39,_40)) + edgepairs_((38,_39),_(39,_40))
 - nodepairs_(38,_39) - nodepairs_(38,_40) <= 0
_C2312: - nodepairs_(38,_42) <= 0
_C2313: - nodepairs_(38,_42) <= 0
_C2314: edgepairs_((37,_38),_(42,_44)) + edgepairs_((38,_39),_(42,_44))
 - nodepairs_(38,_42) - nodepairs_(38,_44) <= 0
_C2315: edgepairs_((37,_38),_(44,_45)) + edgepairs_((38,_39),_(44,_45))
 - nodepairs_(38,_44) - nodepairs_(38,_45) <= 0
_C2316: edgepairs_((37,_38),_(45,_46)) + edgepairs_((38,_39),_(45,_46))
 - nodepairs_(38,_45) - nodepairs_(38,_46) <= 0
_C2317: edgepairs_((37,_38),_(46,_47)) + edgepairs_((38,_39),_(46,_47))
 - nodepairs_(38,_46) - nodepairs_(38,_47) <= 0
_C2318: edgepairs_((37,_38),_(47,_48)) + edgepairs_((38,_39),_(47,_48))
 - nodepairs_(38,_47) - nodepairs_(38,_48) <= 0
_C2319: edgepairs_((37,_38),_(48,_49)) + edgepairs_((38,_39),_(48,_49))
 - nodepairs_(38,_48) - nodepairs_(38,_49) <= 0
_C232: edgepairs_((0,_1),_(11,_12)) + edgepairs_((0,_26),_(11,_12))
 - nodepairs_(0,_11) - nodepairs_(0,_12) <= 0
_C2320: edgepairs_((37,_38),_(49,_50)) + edgepairs_((38,_39),_(49,_50))
 - nodepairs_(38,_49) - nodepairs_(38,_50) <= 0
_C2321: edgepairs_((37,_38),_(50,_51)) + edgepairs_((38,_39),_(50,_51))
 - nodepairs_(38,_50) - nodepairs_(38,_51) <= 0
_C2322: edgepairs_((37,_38),_(51,_52)) + edgepairs_((38,_39),_(51,_52))
 - nodepairs_(38,_51) - nodepairs_(38,_52) <= 0
_C2323: edgepairs_((37,_38),_(52,_53)) + edgepairs_((38,_39),_(52,_53))
 - nodepairs_(38,_52) - nodepairs_(38,_53) <= 0
_C2324: edgepairs_((37,_38),_(53,_54)) + edgepairs_((38,_39),_(53,_54))
 - nodepairs_(38,_53) - nodepairs_(38,_54) <= 0
_C2325: edgepairs_((38,_39),_(0,_1)) + edgepairs_((39,_40),_(0,_1))
 - nodepairs_(39,_0) - nodepairs_(39,_1) <= 0
_C2326: edgepairs_((38,_39),_(0,_17)) + edgepairs_((39,_40),_(0,_17))
 - nodepairs_(39,_0) - nodepairs_(39,_17) <= 0
_C2327: - nodepairs_(39,_0) <= 0
_C2328: - nodepairs_(39,_1) <= 0
_C2329: - nodepairs_(39,_3) <= 0
_C233: edgepairs_((0,_1),_(12,_13)) + edgepairs_((0,_26),_(12,_13))
 - nodepairs_(0,_12) - nodepairs_(0,_13) <= 0
_C2330: - nodepairs_(39,_3) <= 0
_C2331: edgepairs_((38,_39),_(3,_5)) + edgepairs_((39,_40),_(3,_5))
 - nodepairs_(39,_3) - nodepairs_(39,_5) <= 0
_C2332: edgepairs_((38,_39),_(5,_6)) + edgepairs_((39,_40),_(5,_6))
 - nodepairs_(39,_5) - nodepairs_(39,_6) <= 0
_C2333: edgepairs_((38,_39),_(6,_7)) + edgepairs_((39,_40),_(6,_7))
 - nodepairs_(39,_6) - nodepairs_(39,_7) <= 0
_C2334: edgepairs_((38,_39),_(7,_8)) + edgepairs_((39,_40),_(7,_8))
 - nodepairs_(39,_7) - nodepairs_(39,_8) <= 0
_C2335: edgepairs_((38,_39),_(8,_9)) + edgepairs_((39,_40),_(8,_9))
 - nodepairs_(39,_8) - nodepairs_(39,_9) <= 0
_C2336: edgepairs_((38,_39),_(9,_10)) + edgepairs_((39,_40),_(9,_10))
 - nodepairs_(39,_10) - nodepairs_(39,_9) <= 0
_C2337: edgepairs_((38,_39),_(10,_11)) + edgepairs_((39,_40),_(10,_11))
 - nodepairs_(39,_10) - nodepairs_(39,_11) <= 0
_C2338: edgepairs_((38,_39),_(11,_12)) + edgepairs_((39,_40),_(11,_12))
 - nodepairs_(39,_11) - nodepairs_(39,_12) <= 0
_C2339: edgepairs_((38,_39),_(12,_13)) + edgepairs_((39,_40),_(12,_13))
 - nodepairs_(39,_12) - nodepairs_(39,_13) <= 0
_C234: edgepairs_((0,_1),_(13,_14)) + edgepairs_((0,_26),_(13,_14))
 - nodepairs_(0,_13) - nodepairs_(0,_14) <= 0
_C2340: edgepairs_((38,_39),_(13,_14)) + edgepairs_((39,_40),_(13,_14))
 - nodepairs_(39,_13) - nodepairs_(39,_14) <= 0
_C2341: edgepairs_((38,_39),_(14,_15)) + edgepairs_((39,_40),_(14,_15))
 - nodepairs_(39,_14) - nodepairs_(39,_15) <= 0
_C2342: edgepairs_((38,_39),_(15,_16)) + edgepairs_((39,_40),_(15,_16))
 - nodepairs_(39,_15) - nodepairs_(39,_16) <= 0
_C2343: - nodepairs_(39,_17) <= 0
_C2344: - nodepairs_(39,_19) <= 0
_C2345: - nodepairs_(39,_19) <= 0
_C2346: edgepairs_((38,_39),_(19,_21)) + edgepairs_((39,_40),_(19,_21))
 - nodepairs_(39,_19) - nodepairs_(39,_21) <= 0
_C2347: edgepairs_((38,_39),_(21,_22)) + edgepairs_((39,_40),_(21,_22))
 - nodepairs_(39,_21) - nodepairs_(39,_22) <= 0
_C2348: edgepairs_((38,_39),_(22,_23)) + edgepairs_((39,_40),_(22,_23))
 - nodepairs_(39,_22) - nodepairs_(39,_23) <= 0
_C2349: edgepairs_((38,_39),_(23,_24)) + edgepairs_((39,_40),_(23,_24))
 - nodepairs_(39,_23) - nodepairs_(39,_24) <= 0
_C235: edgepairs_((0,_1),_(14,_15)) + edgepairs_((0,_26),_(14,_15))
 - nodepairs_(0,_14) - nodepairs_(0,_15) <= 0
_C2350: edgepairs_((38,_39),_(24,_25)) + edgepairs_((39,_40),_(24,_25))
 - nodepairs_(39,_24) - nodepairs_(39,_25) <= 0
_C2351: edgepairs_((38,_39),_(25,_26)) + edgepairs_((39,_40),_(25,_26))
 - nodepairs_(39,_25) - nodepairs_(39,_26) <= 0
_C2352: edgepairs_((38,_39),_(26,_27)) + edgepairs_((39,_40),_(26,_27))
 - nodepairs_(39,_26) - nodepairs_(39,_27) <= 0
_C2353: edgepairs_((38,_39),_(27,_28)) + edgepairs_((39,_40),_(27,_28))
 - nodepairs_(39,_27) - nodepairs_(39,_28) <= 0
_C2354: edgepairs_((38,_39),_(28,_29)) + edgepairs_((39,_40),_(28,_29))
 - nodepairs_(39,_28) - nodepairs_(39,_29) <= 0
_C2355: edgepairs_((38,_39),_(29,_30)) + edgepairs_((39,_40),_(29,_30))
 - nodepairs_(39,_29) - nodepairs_(39,_30) <= 0
_C2356: edgepairs_((38,_39),_(30,_31)) + edgepairs_((39,_40),_(30,_31))
 - nodepairs_(39,_30) - nodepairs_(39,_31) <= 0
_C2357: edgepairs_((38,_39),_(31,_32)) + edgepairs_((39,_40),_(31,_32))
 - nodepairs_(39,_31) - nodepairs_(39,_32) <= 0
_C2358: edgepairs_((38,_39),_(32,_33)) + edgepairs_((39,_40),_(32,_33))
 - nodepairs_(39,_32) - nodepairs_(39,_33) <= 0
_C2359: edgepairs_((38,_39),_(33,_34)) + edgepairs_((39,_40),_(33,_34))
 - nodepairs_(39,_33) - nodepairs_(39,_34) <= 0
_C236: edgepairs_((0,_1),_(15,_16)) + edgepairs_((0,_26),_(15,_16))
 - nodepairs_(0,_15) - nodepairs_(0,_16) <= 0
_C2360: edgepairs_((38,_39),_(34,_35)) + edgepairs_((39,_40),_(34,_35))
 - nodepairs_(39,_34) - nodepairs_(39,_35) <= 0
_C2361: edgepairs_((38,_39),_(35,_36)) + edgepairs_((39,_40),_(35,_36))
 - nodepairs_(39,_35) - nodepairs_(39,_36) <= 0
_C2362: edgepairs_((38,_39),_(36,_37)) + edgepairs_((39,_40),_(36,_37))
 - nodepairs_(39,_36) - nodepairs_(39,_37) <= 0
_C2363: edgepairs_((38,_39),_(37,_38)) + edgepairs_((39,_40),_(37,_38))
 - nodepairs_(39,_37) - nodepairs_(39,_38) <= 0
_C2364: edgepairs_((38,_39),_(37,_39)) + edgepairs_((39,_40),_(37,_39))
 - nodepairs_(39,_37) - nodepairs_(39,_39) <= 0
_C2365: edgepairs_((38,_39),_(39,_40)) + edgepairs_((39,_40),_(39,_40))
 - nodepairs_(39,_39) - nodepairs_(39,_40) <= 0
_C2366: - nodepairs_(39,_42) <= 0
_C2367: - nodepairs_(39,_42) <= 0
_C2368: edgepairs_((38,_39),_(42,_44)) + edgepairs_((39,_40),_(42,_44))
 - nodepairs_(39,_42) - nodepairs_(39,_44) <= 0
_C2369: edgepairs_((38,_39),_(44,_45)) + edgepairs_((39,_40),_(44,_45))
 - nodepairs_(39,_44) - nodepairs_(39,_45) <= 0
_C237: edgepairs_((0,_43),_(17,_18)) - nodepairs_(0,_17) <= 0
_C2370: edgepairs_((38,_39),_(45,_46)) + edgepairs_((39,_40),_(45,_46))
 - nodepairs_(39,_45) - nodepairs_(39,_46) <= 0
_C2371: edgepairs_((38,_39),_(46,_47)) + edgepairs_((39,_40),_(46,_47))
 - nodepairs_(39,_46) - nodepairs_(39,_47) <= 0
_C2372: edgepairs_((38,_39),_(47,_48)) + edgepairs_((39,_40),_(47,_48))
 - nodepairs_(39,_47) - nodepairs_(39,_48) <= 0
_C2373: edgepairs_((38,_39),_(48,_49)) + edgepairs_((39,_40),_(48,_49))
 - nodepairs_(39,_48) - nodepairs_(39,_49) <= 0
_C2374: edgepairs_((38,_39),_(49,_50)) + edgepairs_((39,_40),_(49,_50))
 - nodepairs_(39,_49) - nodepairs_(39,_50) <= 0
_C2375: edgepairs_((38,_39),_(50,_51)) + edgepairs_((39,_40),_(50,_51))
 - nodepairs_(39,_50) - nodepairs_(39,_51) <= 0
_C2376: edgepairs_((38,_39),_(51,_52)) + edgepairs_((39,_40),_(51,_52))
 - nodepairs_(39,_51) - nodepairs_(39,_52) <= 0
_C2377: edgepairs_((38,_39),_(52,_53)) + edgepairs_((39,_40),_(52,_53))
 - nodepairs_(39,_52) - nodepairs_(39,_53) <= 0
_C2378: edgepairs_((38,_39),_(53,_54)) + edgepairs_((39,_40),_(53,_54))
 - nodepairs_(39,_53) - nodepairs_(39,_54) <= 0
_C2379: edgepairs_((39,_40),_(0,_1)) + edgepairs_((40,_41),_(0,_1))
 + edgepairs_((40,_42),_(0,_1)) - nodepairs_(40,_0) - nodepairs_(40,_1) <= 0
_C238: edgepairs_((0,_43),_(18,_19)) - nodepairs_(0,_19) <= 0
_C2380: edgepairs_((39,_40),_(0,_17)) + edgepairs_((40,_41),_(0,_17))
 + edgepairs_((40,_42),_(0,_17)) - nodepairs_(40,_0) - nodepairs_(40,_17) <= 0
_C2381: - nodepairs_(40,_0) <= 0
_C2382: - nodepairs_(40,_1) <= 0
_C2383: - nodepairs_(40,_3) <= 0
_C2384: - nodepairs_(40,_3) <= 0
_C2385: edgepairs_((39,_40),_(3,_5)) + edgepairs_((40,_41),_(3,_5))
 + edgepairs_((40,_42),_(3,_5)) - nodepairs_(40,_3) - nodepairs_(40,_5) <= 0
_C2386: edgepairs_((39,_40),_(5,_6)) + edgepairs_((40,_41),_(5,_6))
 + edgepairs_((40,_42),_(5,_6)) - nodepairs_(40,_5) - nodepairs_(40,_6) <= 0
_C2387: edgepairs_((39,_40),_(6,_7)) + edgepairs_((40,_41),_(6,_7))
 + edgepairs_((40,_42),_(6,_7)) - nodepairs_(40,_6) - nodepairs_(40,_7) <= 0
_C2388: edgepairs_((39,_40),_(7,_8)) + edgepairs_((40,_41),_(7,_8))
 + edgepairs_((40,_42),_(7,_8)) - nodepairs_(40,_7) - nodepairs_(40,_8) <= 0
_C2389: edgepairs_((39,_40),_(8,_9)) + edgepairs_((40,_41),_(8,_9))
 + edgepairs_((40,_42),_(8,_9)) - nodepairs_(40,_8) - nodepairs_(40,_9) <= 0
_C239: edgepairs_((0,_43),_(19,_20)) - nodepairs_(0,_19) <= 0
_C2390: edgepairs_((39,_40),_(9,_10)) + edgepairs_((40,_41),_(9,_10))
 + edgepairs_((40,_42),_(9,_10)) - nodepairs_(40,_10) - nodepairs_(40,_9) <= 0
_C2391: edgepairs_((39,_40),_(10,_11)) + edgepairs_((40,_41),_(10,_11))
 + edgepairs_((40,_42),_(10,_11)) - nodepairs_(40,_10) - nodepairs_(40,_11)
 <= 0
_C2392: edgepairs_((39,_40),_(11,_12)) + edgepairs_((40,_41),_(11,_12))
 + edgepairs_((40,_42),_(11,_12)) - nodepairs_(40,_11) - nodepairs_(40,_12)
 <= 0
_C2393: edgepairs_((39,_40),_(12,_13)) + edgepairs_((40,_41),_(12,_13))
 + edgepairs_((40,_42),_(12,_13)) - nodepairs_(40,_12) - nodepairs_(40,_13)
 <= 0
_C2394: edgepairs_((39,_40),_(13,_14)) + edgepairs_((40,_41),_(13,_14))
 + edgepairs_((40,_42),_(13,_14)) - nodepairs_(40,_13) - nodepairs_(40,_14)
 <= 0
_C2395: edgepairs_((39,_40),_(14,_15)) + edgepairs_((40,_41),_(14,_15))
 + edgepairs_((40,_42),_(14,_15)) - nodepairs_(40,_14) - nodepairs_(40,_15)
 <= 0
_C2396: edgepairs_((39,_40),_(15,_16)) + edgepairs_((40,_41),_(15,_16))
 + edgepairs_((40,_42),_(15,_16)) - nodepairs_(40,_15) - nodepairs_(40,_16)
 <= 0
_C2397: - nodepairs_(40,_17) <= 0
_C2398: - nodepairs_(40,_19) <= 0
_C2399: - nodepairs_(40,_19) <= 0
_C24: nodepairs_(23,_0) + nodepairs_(23,_1) + nodepairs_(23,_10)
 + nodepairs_(23,_11) + nodepairs_(23,_12) + nodepairs_(23,_13)
 + nodepairs_(23,_14) + nodepairs_(23,_15) + nodepairs_(23,_16)
 + nodepairs_(23,_17) + nodepairs_(23,_19) + nodepairs_(23,_21)
 + nodepairs_(23,_22) + nodepairs_(23,_23) + nodepairs_(23,_24)
 + nodepairs_(23,_25) + nodepairs_(23,_26) + nodepairs_(23,_27)
 + nodepairs_(23,_28) + nodepairs_(23,_29) + nodepairs_(23,_3)
 + nodepairs_(23,_30) + nodepairs_(23,_31) + nodepairs_(23,_32)
 + nodepairs_(23,_33) + nodepairs_(23,_34) + nodepairs_(23,_35)
 + nodepairs_(23,_36) + nodepairs_(23,_37) + nodepairs_(23,_38)
 + nodepairs_(23,_39) + nodepairs_(23,_40) + nodepairs_(23,_42)
 + nodepairs_(23,_44) + nodepairs_(23,_45) + nodepairs_(23,_46)
 + nodepairs_(23,_47) + nodepairs_(23,_48) + nodepairs_(23,_49)
 + nodepairs_(23,_5) + nodepairs_(23,_50) + nodepairs_(23,_51)
 + nodepairs_(23,_52) + nodepairs_(23,_53) + nodepairs_(23,_54)
 + nodepairs_(23,_6) + nodepairs_(23,_7) + nodepairs_(23,_8)
 + nodepairs_(23,_9) <= 1
_C240: edgepairs_((0,_1),_(19,_21)) + edgepairs_((0,_26),_(19,_21))
 - nodepairs_(0,_19) - nodepairs_(0,_21) <= 0
_C2400: edgepairs_((39,_40),_(19,_21)) + edgepairs_((40,_41),_(19,_21))
 + edgepairs_((40,_42),_(19,_21)) - nodepairs_(40,_19) - nodepairs_(40,_21)
 <= 0
_C2401: edgepairs_((39,_40),_(21,_22)) + edgepairs_((40,_41),_(21,_22))
 + edgepairs_((40,_42),_(21,_22)) - nodepairs_(40,_21) - nodepairs_(40,_22)
 <= 0
_C2402: edgepairs_((39,_40),_(22,_23)) + edgepairs_((40,_41),_(22,_23))
 + edgepairs_((40,_42),_(22,_23)) - nodepairs_(40,_22) - nodepairs_(40,_23)
 <= 0
_C2403: edgepairs_((39,_40),_(23,_24)) + edgepairs_((40,_41),_(23,_24))
 + edgepairs_((40,_42),_(23,_24)) - nodepairs_(40,_23) - nodepairs_(40,_24)
 <= 0
_C2404: edgepairs_((39,_40),_(24,_25)) + edgepairs_((40,_41),_(24,_25))
 + edgepairs_((40,_42),_(24,_25)) - nodepairs_(40,_24) - nodepairs_(40,_25)
 <= 0
_C2405: edgepairs_((39,_40),_(25,_26)) + edgepairs_((40,_41),_(25,_26))
 + edgepairs_((40,_42),_(25,_26)) - nodepairs_(40,_25) - nodepairs_(40,_26)
 <= 0
_C2406: edgepairs_((39,_40),_(26,_27)) + edgepairs_((40,_41),_(26,_27))
 + edgepairs_((40,_42),_(26,_27)) - nodepairs_(40,_26) - nodepairs_(40,_27)
 <= 0
_C2407: edgepairs_((39,_40),_(27,_28)) + edgepairs_((40,_41),_(27,_28))
 + edgepairs_((40,_42),_(27,_28)) - nodepairs_(40,_27) - nodepairs_(40,_28)
 <= 0
_C2408: edgepairs_((39,_40),_(28,_29)) + edgepairs_((40,_41),_(28,_29))
 + edgepairs_((40,_42),_(28,_29)) - nodepairs_(40,_28) - nodepairs_(40,_29)
 <= 0
_C2409: edgepairs_((39,_40),_(29,_30)) + edgepairs_((40,_41),_(29,_30))
 + edgepairs_((40,_42),_(29,_30)) - nodepairs_(40,_29) - nodepairs_(40,_30)
 <= 0
_C241: edgepairs_((0,_1),_(21,_22)) + edgepairs_((0,_26),_(21,_22))
 - nodepairs_(0,_21) - nodepairs_(0,_22) <= 0
_C2410: edgepairs_((39,_40),_(30,_31)) + edgepairs_((40,_41),_(30,_31))
 + edgepairs_((40,_42),_(30,_31)) - nodepairs_(40,_30) - nodepairs_(40,_31)
 <= 0
_C2411: edgepairs_((39,_40),_(31,_32)) + edgepairs_((40,_41),_(31,_32))
 + edgepairs_((40,_42),_(31,_32)) - nodepairs_(40,_31) - nodepairs_(40,_32)
 <= 0
_C2412: edgepairs_((39,_40),_(32,_33)) + edgepairs_((40,_41),_(32,_33))
 + edgepairs_((40,_42),_(32,_33)) - nodepairs_(40,_32) - nodepairs_(40,_33)
 <= 0
_C2413: edgepairs_((39,_40),_(33,_34)) + edgepairs_((40,_41),_(33,_34))
 + edgepairs_((40,_42),_(33,_34)) - nodepairs_(40,_33) - nodepairs_(40,_34)
 <= 0
_C2414: edgepairs_((39,_40),_(34,_35)) + edgepairs_((40,_41),_(34,_35))
 + edgepairs_((40,_42),_(34,_35)) - nodepairs_(40,_34) - nodepairs_(40,_35)
 <= 0
_C2415: edgepairs_((39,_40),_(35,_36)) + edgepairs_((40,_41),_(35,_36))
 + edgepairs_((40,_42),_(35,_36)) - nodepairs_(40,_35) - nodepairs_(40,_36)
 <= 0
_C2416: edgepairs_((39,_40),_(36,_37)) + edgepairs_((40,_41),_(36,_37))
 + edgepairs_((40,_42),_(36,_37)) - nodepairs_(40,_36) - nodepairs_(40,_37)
 <= 0
_C2417: edgepairs_((39,_40),_(37,_38)) + edgepairs_((40,_41),_(37,_38))
 + edgepairs_((40,_42),_(37,_38)) - nodepairs_(40,_37) - nodepairs_(40,_38)
 <= 0
_C2418: edgepairs_((39,_40),_(37,_39)) + edgepairs_((40,_41),_(37,_39))
 + edgepairs_((40,_42),_(37,_39)) - nodepairs_(40,_37) - nodepairs_(40,_39)
 <= 0
_C2419: edgepairs_((39,_40),_(39,_40)) + edgepairs_((40,_41),_(39,_40))
 + edgepairs_((40,_42),_(39,_40)) - nodepairs_(40,_39) - nodepairs_(40,_40)
 <= 0
_C242: edgepairs_((0,_1),_(22,_23)) + edgepairs_((0,_26),_(22,_23))
 - nodepairs_(0,_22) - nodepairs_(0,_23) <= 0
_C2420: - nodepairs_(40,_42) <= 0
_C2421: - nodepairs_(40,_42) <= 0
_C2422: edgepairs_((39,_40),_(42,_44)) + edgepairs_((40,_41),_(42,_44))
 + edgepairs_((40,_42),_(42,_44)) - nodepairs_(40,_42) - nodepairs_(40,_44)
 <= 0
_C2423: edgepairs_((39,_40),_(44,_45)) + edgepairs_((40,_41),_(44,_45))
 + edgepairs_((40,_42),_(44,_45)) - nodepairs_(40,_44) - nodepairs_(40,_45)
 <= 0
_C2424: edgepairs_((39,_40),_(45,_46)) + edgepairs_((40,_41),_(45,_46))
 + edgepairs_((40,_42),_(45,_46)) - nodepairs_(40,_45) - nodepairs_(40,_46)
 <= 0
_C2425: edgepairs_((39,_40),_(46,_47)) + edgepairs_((40,_41),_(46,_47))
 + edgepairs_((40,_42),_(46,_47)) - nodepairs_(40,_46) - nodepairs_(40,_47)
 <= 0
_C2426: edgepairs_((39,_40),_(47,_48)) + edgepairs_((40,_41),_(47,_48))
 + edgepairs_((40,_42),_(47,_48)) - nodepairs_(40,_47) - nodepairs_(40,_48)
 <= 0
_C2427: edgepairs_((39,_40),_(48,_49)) + edgepairs_((40,_41),_(48,_49))
 + edgepairs_((40,_42),_(48,_49)) - nodepairs_(40,_48) - nodepairs_(40,_49)
 <= 0
_C2428: edgepairs_((39,_40),_(49,_50)) + edgepairs_((40,_41),_(49,_50))
 + edgepairs_((40,_42),_(49,_50)) - nodepairs_(40,_49) - nodepairs_(40,_50)
 <= 0
_C2429: edgepairs_((39,_40),_(50,_51)) + edgepairs_((40,_41),_(50,_51))
 + edgepairs_((40,_42),_(50,_51)) - nodepairs_(40,_50) - nodepairs_(40,_51)
 <= 0
_C243: edgepairs_((0,_1),_(23,_24)) + edgepairs_((0,_26),_(23,_24))
 - nodepairs_(0,_23) - nodepairs_(0,_24) <= 0
_C2430: edgepairs_((39,_40),_(51,_52)) + edgepairs_((40,_41),_(51,_52))
 + edgepairs_((40,_42),_(51,_52)) - nodepairs_(40,_51) - nodepairs_(40,_52)
 <= 0
_C2431: edgepairs_((39,_40),_(52,_53)) + edgepairs_((40,_41),_(52,_53))
 + edgepairs_((40,_42),_(52,_53)) - nodepairs_(40,_52) - nodepairs_(40,_53)
 <= 0
_C2432: edgepairs_((39,_40),_(53,_54)) + edgepairs_((40,_41),_(53,_54))
 + edgepairs_((40,_42),_(53,_54)) - nodepairs_(40,_53) - nodepairs_(40,_54)
 <= 0
_C2433: edgepairs_((40,_41),_(0,_1)) - nodepairs_(41,_0) - nodepairs_(41,_1)
 <= 0
_C2434: edgepairs_((40,_41),_(0,_17)) - nodepairs_(41,_0) - nodepairs_(41,_17)
 <= 0
_C2435: - nodepairs_(41,_0) <= 0
_C2436: - nodepairs_(41,_1) <= 0
_C2437: - nodepairs_(41,_3) <= 0
_C2438: - nodepairs_(41,_3) <= 0
_C2439: edgepairs_((40,_41),_(3,_5)) - nodepairs_(41,_3) - nodepairs_(41,_5)
 <= 0
_C244: edgepairs_((0,_1),_(24,_25)) + edgepairs_((0,_26),_(24,_25))
 - nodepairs_(0,_24) - nodepairs_(0,_25) <= 0
_C2440: edgepairs_((40,_41),_(5,_6)) - nodepairs_(41,_5) - nodepairs_(41,_6)
 <= 0
_C2441: edgepairs_((40,_41),_(6,_7)) - nodepairs_(41,_6) - nodepairs_(41,_7)
 <= 0
_C2442: edgepairs_((40,_41),_(7,_8)) - nodepairs_(41,_7) - nodepairs_(41,_8)
 <= 0
_C2443: edgepairs_((40,_41),_(8,_9)) - nodepairs_(41,_8) - nodepairs_(41,_9)
 <= 0
_C2444: edgepairs_((40,_41),_(9,_10)) - nodepairs_(41,_10) - nodepairs_(41,_9)
 <= 0
_C2445: edgepairs_((40,_41),_(10,_11)) - nodepairs_(41,_10)
 - nodepairs_(41,_11) <= 0
_C2446: edgepairs_((40,_41),_(11,_12)) - nodepairs_(41,_11)
 - nodepairs_(41,_12) <= 0
_C2447: edgepairs_((40,_41),_(12,_13)) - nodepairs_(41,_12)
 - nodepairs_(41,_13) <= 0
_C2448: edgepairs_((40,_41),_(13,_14)) - nodepairs_(41,_13)
 - nodepairs_(41,_14) <= 0
_C2449: edgepairs_((40,_41),_(14,_15)) - nodepairs_(41,_14)
 - nodepairs_(41,_15) <= 0
_C245: edgepairs_((0,_1),_(25,_26)) + edgepairs_((0,_26),_(25,_26))
 - nodepairs_(0,_25) - nodepairs_(0,_26) <= 0
_C2450: edgepairs_((40,_41),_(15,_16)) - nodepairs_(41,_15)
 - nodepairs_(41,_16) <= 0
_C2451: - nodepairs_(41,_17) <= 0
_C2452: - nodepairs_(41,_19) <= 0
_C2453: - nodepairs_(41,_19) <= 0
_C2454: edgepairs_((40,_41),_(19,_21)) - nodepairs_(41,_19)
 - nodepairs_(41,_21) <= 0
_C2455: edgepairs_((40,_41),_(21,_22)) - nodepairs_(41,_21)
 - nodepairs_(41,_22) <= 0
_C2456: edgepairs_((40,_41),_(22,_23)) - nodepairs_(41,_22)
 - nodepairs_(41,_23) <= 0
_C2457: edgepairs_((40,_41),_(23,_24)) - nodepairs_(41,_23)
 - nodepairs_(41,_24) <= 0
_C2458: edgepairs_((40,_41),_(24,_25)) - nodepairs_(41,_24)
 - nodepairs_(41,_25) <= 0
_C2459: edgepairs_((40,_41),_(25,_26)) - nodepairs_(41,_25)
 - nodepairs_(41,_26) <= 0
_C246: edgepairs_((0,_1),_(26,_27)) + edgepairs_((0,_26),_(26,_27))
 - nodepairs_(0,_26) - nodepairs_(0,_27) <= 0
_C2460: edgepairs_((40,_41),_(26,_27)) - nodepairs_(41,_26)
 - nodepairs_(41,_27) <= 0
_C2461: edgepairs_((40,_41),_(27,_28)) - nodepairs_(41,_27)
 - nodepairs_(41,_28) <= 0
_C2462: edgepairs_((40,_41),_(28,_29)) - nodepairs_(41,_28)
 - nodepairs_(41,_29) <= 0
_C2463: edgepairs_((40,_41),_(29,_30)) - nodepairs_(41,_29)
 - nodepairs_(41,_30) <= 0
_C2464: edgepairs_((40,_41),_(30,_31)) - nodepairs_(41,_30)
 - nodepairs_(41,_31) <= 0
_C2465: edgepairs_((40,_41),_(31,_32)) - nodepairs_(41,_31)
 - nodepairs_(41,_32) <= 0
_C2466: edgepairs_((40,_41),_(32,_33)) - nodepairs_(41,_32)
 - nodepairs_(41,_33) <= 0
_C2467: edgepairs_((40,_41),_(33,_34)) - nodepairs_(41,_33)
 - nodepairs_(41,_34) <= 0
_C2468: edgepairs_((40,_41),_(34,_35)) - nodepairs_(41,_34)
 - nodepairs_(41,_35) <= 0
_C2469: edgepairs_((40,_41),_(35,_36)) - nodepairs_(41,_35)
 - nodepairs_(41,_36) <= 0
_C247: edgepairs_((0,_1),_(27,_28)) + edgepairs_((0,_26),_(27,_28))
 - nodepairs_(0,_27) - nodepairs_(0,_28) <= 0
_C2470: edgepairs_((40,_41),_(36,_37)) - nodepairs_(41,_36)
 - nodepairs_(41,_37) <= 0
_C2471: edgepairs_((40,_41),_(37,_38)) - nodepairs_(41,_37)
 - nodepairs_(41,_38) <= 0
_C2472: edgepairs_((40,_41),_(37,_39)) - nodepairs_(41,_37)
 - nodepairs_(41,_39) <= 0
_C2473: edgepairs_((40,_41),_(39,_40)) - nodepairs_(41,_39)
 - nodepairs_(41,_40) <= 0
_C2474: - nodepairs_(41,_42) <= 0
_C2475: - nodepairs_(41,_42) <= 0
_C2476: edgepairs_((40,_41),_(42,_44)) - nodepairs_(41,_42)
 - nodepairs_(41,_44) <= 0
_C2477: edgepairs_((40,_41),_(44,_45)) - nodepairs_(41,_44)
 - nodepairs_(41,_45) <= 0
_C2478: edgepairs_((40,_41),_(45,_46)) - nodepairs_(41,_45)
 - nodepairs_(41,_46) <= 0
_C2479: edgepairs_((40,_41),_(46,_47)) - nodepairs_(41,_46)
 - nodepairs_(41,_47) <= 0
_C248: edgepairs_((0,_1),_(28,_29)) + edgepairs_((0,_26),_(28,_29))
 - nodepairs_(0,_28) - nodepairs_(0,_29) <= 0
_C2480: edgepairs_((40,_41),_(47,_48)) - nodepairs_(41,_47)
 - nodepairs_(41,_48) <= 0
_C2481: edgepairs_((40,_41),_(48,_49)) - nodepairs_(41,_48)
 - nodepairs_(41,_49) <= 0
_C2482: edgepairs_((40,_41),_(49,_50)) - nodepairs_(41,_49)
 - nodepairs_(41,_50) <= 0
_C2483: edgepairs_((40,_41),_(50,_51)) - nodepairs_(41,_50)
 - nodepairs_(41,_51) <= 0
_C2484: edgepairs_((40,_41),_(51,_52)) - nodepairs_(41,_51)
 - nodepairs_(41,_52) <= 0
_C2485: edgepairs_((40,_41),_(52,_53)) - nodepairs_(41,_52)
 - nodepairs_(41,_53) <= 0
_C2486: edgepairs_((40,_41),_(53,_54)) - nodepairs_(41,_53)
 - nodepairs_(41,_54) <= 0
_C2487: edgepairs_((40,_42),_(0,_1)) - nodepairs_(42,_0) - nodepairs_(42,_1)
 <= 0
_C2488: edgepairs_((40,_42),_(0,_17)) - nodepairs_(42,_0) - nodepairs_(42,_17)
 <= 0
_C2489: - nodepairs_(42,_0) <= 0
_C249: edgepairs_((0,_1),_(29,_30)) + edgepairs_((0,_26),_(29,_30))
 - nodepairs_(0,_29) - nodepairs_(0,_30) <= 0
_C2490: - nodepairs_(42,_1) <= 0
_C2491: - nodepairs_(42,_3) <= 0
_C2492: - nodepairs_(42,_3) <= 0
_C2493: edgepairs_((40,_42),_(3,_5)) - nodepairs_(42,_3) - nodepairs_(42,_5)
 <= 0
_C2494: edgepairs_((40,_42),_(5,_6)) - nodepairs_(42,_5) - nodepairs_(42,_6)
 <= 0
_C2495: edgepairs_((40,_42),_(6,_7)) - nodepairs_(42,_6) - nodepairs_(42,_7)
 <= 0
_C2496: edgepairs_((40,_42),_(7,_8)) - nodepairs_(42,_7) - nodepairs_(42,_8)
 <= 0
_C2497: edgepairs_((40,_42),_(8,_9)) - nodepairs_(42,_8) - nodepairs_(42,_9)
 <= 0
_C2498: edgepairs_((40,_42),_(9,_10)) - nodepairs_(42,_10) - nodepairs_(42,_9)
 <= 0
_C2499: edgepairs_((40,_42),_(10,_11)) - nodepairs_(42,_10)
 - nodepairs_(42,_11) <= 0
_C25: nodepairs_(24,_0) + nodepairs_(24,_1) + nodepairs_(24,_10)
 + nodepairs_(24,_11) + nodepairs_(24,_12) + nodepairs_(24,_13)
 + nodepairs_(24,_14) + nodepairs_(24,_15) + nodepairs_(24,_16)
 + nodepairs_(24,_17) + nodepairs_(24,_19) + nodepairs_(24,_21)
 + nodepairs_(24,_22) + nodepairs_(24,_23) + nodepairs_(24,_24)
 + nodepairs_(24,_25) + nodepairs_(24,_26) + nodepairs_(24,_27)
 + nodepairs_(24,_28) + nodepairs_(24,_29) + nodepairs_(24,_3)
 + nodepairs_(24,_30) + nodepairs_(24,_31) + nodepairs_(24,_32)
 + nodepairs_(24,_33) + nodepairs_(24,_34) + nodepairs_(24,_35)
 + nodepairs_(24,_36) + nodepairs_(24,_37) + nodepairs_(24,_38)
 + nodepairs_(24,_39) + nodepairs_(24,_40) + nodepairs_(24,_42)
 + nodepairs_(24,_44) + nodepairs_(24,_45) + nodepairs_(24,_46)
 + nodepairs_(24,_47) + nodepairs_(24,_48) + nodepairs_(24,_49)
 + nodepairs_(24,_5) + nodepairs_(24,_50) + nodepairs_(24,_51)
 + nodepairs_(24,_52) + nodepairs_(24,_53) + nodepairs_(24,_54)
 + nodepairs_(24,_6) + nodepairs_(24,_7) + nodepairs_(24,_8)
 + nodepairs_(24,_9) <= 1
_C250: edgepairs_((0,_1),_(30,_31)) + edgepairs_((0,_26),_(30,_31))
 - nodepairs_(0,_30) - nodepairs_(0,_31) <= 0
_C2500: edgepairs_((40,_42),_(11,_12)) - nodepairs_(42,_11)
 - nodepairs_(42,_12) <= 0
_C2501: edgepairs_((40,_42),_(12,_13)) - nodepairs_(42,_12)
 - nodepairs_(42,_13) <= 0
_C2502: edgepairs_((40,_42),_(13,_14)) - nodepairs_(42,_13)
 - nodepairs_(42,_14) <= 0
_C2503: edgepairs_((40,_42),_(14,_15)) - nodepairs_(42,_14)
 - nodepairs_(42,_15) <= 0
_C2504: edgepairs_((40,_42),_(15,_16)) - nodepairs_(42,_15)
 - nodepairs_(42,_16) <= 0
_C2505: - nodepairs_(42,_17) <= 0
_C2506: - nodepairs_(42,_19) <= 0
_C2507: - nodepairs_(42,_19) <= 0
_C2508: edgepairs_((40,_42),_(19,_21)) - nodepairs_(42,_19)
 - nodepairs_(42,_21) <= 0
_C2509: edgepairs_((40,_42),_(21,_22)) - nodepairs_(42,_21)
 - nodepairs_(42,_22) <= 0
_C251: edgepairs_((0,_1),_(31,_32)) + edgepairs_((0,_26),_(31,_32))
 - nodepairs_(0,_31) - nodepairs_(0,_32) <= 0
_C2510: edgepairs_((40,_42),_(22,_23)) - nodepairs_(42,_22)
 - nodepairs_(42,_23) <= 0
_C2511: edgepairs_((40,_42),_(23,_24)) - nodepairs_(42,_23)
 - nodepairs_(42,_24) <= 0
_C2512: edgepairs_((40,_42),_(24,_25)) - nodepairs_(42,_24)
 - nodepairs_(42,_25) <= 0
_C2513: edgepairs_((40,_42),_(25,_26)) - nodepairs_(42,_25)
 - nodepairs_(42,_26) <= 0
_C2514: edgepairs_((40,_42),_(26,_27)) - nodepairs_(42,_26)
 - nodepairs_(42,_27) <= 0
_C2515: edgepairs_((40,_42),_(27,_28)) - nodepairs_(42,_27)
 - nodepairs_(42,_28) <= 0
_C2516: edgepairs_((40,_42),_(28,_29)) - nodepairs_(42,_28)
 - nodepairs_(42,_29) <= 0
_C2517: edgepairs_((40,_42),_(29,_30)) - nodepairs_(42,_29)
 - nodepairs_(42,_30) <= 0
_C2518: edgepairs_((40,_42),_(30,_31)) - nodepairs_(42,_30)
 - nodepairs_(42,_31) <= 0
_C2519: edgepairs_((40,_42),_(31,_32)) - nodepairs_(42,_31)
 - nodepairs_(42,_32) <= 0
_C252: edgepairs_((0,_1),_(32,_33)) + edgepairs_((0,_26),_(32,_33))
 - nodepairs_(0,_32) - nodepairs_(0,_33) <= 0
_C2520: edgepairs_((40,_42),_(32,_33)) - nodepairs_(42,_32)
 - nodepairs_(42,_33) <= 0
_C2521: edgepairs_((40,_42),_(33,_34)) - nodepairs_(42,_33)
 - nodepairs_(42,_34) <= 0
_C2522: edgepairs_((40,_42),_(34,_35)) - nodepairs_(42,_34)
 - nodepairs_(42,_35) <= 0
_C2523: edgepairs_((40,_42),_(35,_36)) - nodepairs_(42,_35)
 - nodepairs_(42,_36) <= 0
_C2524: edgepairs_((40,_42),_(36,_37)) - nodepairs_(42,_36)
 - nodepairs_(42,_37) <= 0
_C2525: edgepairs_((40,_42),_(37,_38)) - nodepairs_(42,_37)
 - nodepairs_(42,_38) <= 0
_C2526: edgepairs_((40,_42),_(37,_39)) - nodepairs_(42,_37)
 - nodepairs_(42,_39) <= 0
_C2527: edgepairs_((40,_42),_(39,_40)) - nodepairs_(42,_39)
 - nodepairs_(42,_40) <= 0
_C2528: - nodepairs_(42,_42) <= 0
_C2529: - nodepairs_(42,_42) <= 0
_C253: edgepairs_((0,_1),_(33,_34)) + edgepairs_((0,_26),_(33,_34))
 - nodepairs_(0,_33) - nodepairs_(0,_34) <= 0
_C2530: edgepairs_((40,_42),_(42,_44)) - nodepairs_(42,_42)
 - nodepairs_(42,_44) <= 0
_C2531: edgepairs_((40,_42),_(44,_45)) - nodepairs_(42,_44)
 - nodepairs_(42,_45) <= 0
_C2532: edgepairs_((40,_42),_(45,_46)) - nodepairs_(42,_45)
 - nodepairs_(42,_46) <= 0
_C2533: edgepairs_((40,_42),_(46,_47)) - nodepairs_(42,_46)
 - nodepairs_(42,_47) <= 0
_C2534: edgepairs_((40,_42),_(47,_48)) - nodepairs_(42,_47)
 - nodepairs_(42,_48) <= 0
_C2535: edgepairs_((40,_42),_(48,_49)) - nodepairs_(42,_48)
 - nodepairs_(42,_49) <= 0
_C2536: edgepairs_((40,_42),_(49,_50)) - nodepairs_(42,_49)
 - nodepairs_(42,_50) <= 0
_C2537: edgepairs_((40,_42),_(50,_51)) - nodepairs_(42,_50)
 - nodepairs_(42,_51) <= 0
_C2538: edgepairs_((40,_42),_(51,_52)) - nodepairs_(42,_51)
 - nodepairs_(42,_52) <= 0
_C2539: edgepairs_((40,_42),_(52,_53)) - nodepairs_(42,_52)
 - nodepairs_(42,_53) <= 0
_C254: edgepairs_((0,_1),_(34,_35)) + edgepairs_((0,_26),_(34,_35))
 - nodepairs_(0,_34) - nodepairs_(0,_35) <= 0
_C2540: edgepairs_((40,_42),_(53,_54)) - nodepairs_(42,_53)
 - nodepairs_(42,_54) <= 0
_C2541: __dummy <= 0
_C2542: __dummy <= 0
_C2543: edgepairs_((0,_43),_(0,_41)) + edgepairs_((43,_44),_(0,_41))
 - nodepairs_(43,_41) <= 0
_C2544: edgepairs_((0,_43),_(1,_2)) + edgepairs_((43,_44),_(1,_2))
 - nodepairs_(43,_2) <= 0
_C2545: edgepairs_((0,_43),_(2,_3)) + edgepairs_((43,_44),_(2,_3))
 - nodepairs_(43,_2) <= 0
_C2546: edgepairs_((0,_43),_(3,_4)) + edgepairs_((43,_44),_(3,_4))
 - nodepairs_(43,_4) <= 0
_C2547: __dummy <= 0
_C2548: __dummy <= 0
_C2549: __dummy <= 0
_C255: edgepairs_((0,_1),_(35,_36)) + edgepairs_((0,_26),_(35,_36))
 - nodepairs_(0,_35) - nodepairs_(0,_36) <= 0
_C2550: __dummy <= 0
_C2551: __dummy <= 0
_C2552: __dummy <= 0
_C2553: __dummy <= 0
_C2554: __dummy <= 0
_C2555: __dummy <= 0
_C2556: __dummy <= 0
_C2557: __dummy <= 0
_C2558: __dummy <= 0
_C2559: edgepairs_((0,_43),_(17,_18)) + edgepairs_((43,_44),_(17,_18))
 - nodepairs_(43,_18) <= 0
_C256: edgepairs_((0,_1),_(36,_37)) + edgepairs_((0,_26),_(36,_37))
 - nodepairs_(0,_36) - nodepairs_(0,_37) <= 0
_C2560: edgepairs_((0,_43),_(18,_19)) + edgepairs_((43,_44),_(18,_19))
 - nodepairs_(43,_18) <= 0
_C2561: edgepairs_((0,_43),_(19,_20)) + edgepairs_((43,_44),_(19,_20))
 - nodepairs_(43,_20) <= 0
_C2562: __dummy <= 0
_C2563: __dummy <= 0
_C2564: __dummy <= 0
_C2565: __dummy <= 0
_C2566: __dummy <= 0
_C2567: __dummy <= 0
_C2568: __dummy <= 0
_C2569: __dummy <= 0
_C257: edgepairs_((0,_1),_(37,_38)) + edgepairs_((0,_26),_(37,_38))
 - nodepairs_(0,_37) - nodepairs_(0,_38) <= 0
_C2570: __dummy <= 0
_C2571: __dummy <= 0
_C2572: __dummy <= 0
_C2573: __dummy <= 0
_C2574: __dummy <= 0
_C2575: __dummy <= 0
_C2576: __dummy <= 0
_C2577: __dummy <= 0
_C2578: __dummy <= 0
_C2579: __dummy <= 0
_C258: edgepairs_((0,_1),_(37,_39)) + edgepairs_((0,_26),_(37,_39))
 - nodepairs_(0,_37) - nodepairs_(0,_39) <= 0
_C2580: __dummy <= 0
_C2581: __dummy <= 0
_C2582: edgepairs_((0,_43),_(41,_42)) + edgepairs_((43,_44),_(41,_42))
 - nodepairs_(43,_41) <= 0
_C2583: edgepairs_((0,_43),_(42,_43)) + edgepairs_((43,_44),_(42,_43))
 - nodepairs_(43,_43) <= 0
_C2584: __dummy <= 0
_C2585: __dummy <= 0
_C2586: __dummy <= 0
_C2587: __dummy <= 0
_C2588: __dummy <= 0
_C2589: __dummy <= 0
_C259: edgepairs_((0,_1),_(39,_40)) + edgepairs_((0,_26),_(39,_40))
 - nodepairs_(0,_39) - nodepairs_(0,_40) <= 0
_C2590: __dummy <= 0
_C2591: __dummy <= 0
_C2592: __dummy <= 0
_C2593: __dummy <= 0
_C2594: __dummy <= 0
_C2595: edgepairs_((44,_46),_(0,_1)) - nodepairs_(44,_0) - nodepairs_(44,_1)
 <= 0
_C2596: edgepairs_((44,_46),_(0,_17)) - nodepairs_(44,_0) - nodepairs_(44,_17)
 <= 0
_C2597: edgepairs_((43,_44),_(0,_41)) + edgepairs_((44,_45),_(0,_41))
 - nodepairs_(44,_0) <= 0
_C2598: edgepairs_((43,_44),_(1,_2)) + edgepairs_((44,_45),_(1,_2))
 - nodepairs_(44,_1) <= 0
_C2599: edgepairs_((43,_44),_(2,_3)) + edgepairs_((44,_45),_(2,_3))
 - nodepairs_(44,_3) <= 0
_C26: nodepairs_(25,_0) + nodepairs_(25,_1) + nodepairs_(25,_10)
 + nodepairs_(25,_11) + nodepairs_(25,_12) + nodepairs_(25,_13)
 + nodepairs_(25,_14) + nodepairs_(25,_15) + nodepairs_(25,_16)
 + nodepairs_(25,_17) + nodepairs_(25,_19) + nodepairs_(25,_21)
 + nodepairs_(25,_22) + nodepairs_(25,_23) + nodepairs_(25,_24)
 + nodepairs_(25,_25) + nodepairs_(25,_26) + nodepairs_(25,_27)
 + nodepairs_(25,_28) + nodepairs_(25,_29) + nodepairs_(25,_3)
 + nodepairs_(25,_30) + nodepairs_(25,_31) + nodepairs_(25,_32)
 + nodepairs_(25,_33) + nodepairs_(25,_34) + nodepairs_(25,_35)
 + nodepairs_(25,_36) + nodepairs_(25,_37) + nodepairs_(25,_38)
 + nodepairs_(25,_39) + nodepairs_(25,_40) + nodepairs_(25,_42)
 + nodepairs_(25,_44) + nodepairs_(25,_45) + nodepairs_(25,_46)
 + nodepairs_(25,_47) + nodepairs_(25,_48) + nodepairs_(25,_49)
 + nodepairs_(25,_5) + nodepairs_(25,_50) + nodepairs_(25,_51)
 + nodepairs_(25,_52) + nodepairs_(25,_53) + nodepairs_(25,_54)
 + nodepairs_(25,_6) + nodepairs_(25,_7) + nodepairs_(25,_8)
 + nodepairs_(25,_9) <= 1
_C260: edgepairs_((0,_43),_(41,_42)) - nodepairs_(0,_42) <= 0
_C2600: edgepairs_((43,_44),_(3,_4)) + edgepairs_((44,_45),_(3,_4))
 - nodepairs_(44,_3) <= 0
_C2601: edgepairs_((44,_46),_(3,_5)) - nodepairs_(44,_3) - nodepairs_(44,_5)
 <= 0
_C2602: edgepairs_((44,_46),_(5,_6)) - nodepairs_(44,_5) - nodepairs_(44,_6)
 <= 0
_C2603: edgepairs_((44,_46),_(6,_7)) - nodepairs_(44,_6) - nodepairs_(44,_7)
 <= 0
_C2604: edgepairs_((44,_46),_(7,_8)) - nodepairs_(44,_7) - nodepairs_(44,_8)
 <= 0
_C2605: edgepairs_((44,_46),_(8,_9)) - nodepairs_(44,_8) - nodepairs_(44,_9)
 <= 0
_C2606: edgepairs_((44,_46),_(9,_10)) - nodepairs_(44,_10) - nodepairs_(44,_9)
 <= 0
_C2607: edgepairs_((44,_46),_(10,_11)) - nodepairs_(44,_10)
 - nodepairs_(44,_11) <= 0
_C2608: edgepairs_((44,_46),_(11,_12)) - nodepairs_(44,_11)
 - nodepairs_(44,_12) <= 0
_C2609: edgepairs_((44,_46),_(12,_13)) - nodepairs_(44,_12)
 - nodepairs_(44,_13) <= 0
_C261: edgepairs_((0,_43),_(42,_43)) - nodepairs_(0,_42) <= 0
_C2610: edgepairs_((44,_46),_(13,_14)) - nodepairs_(44,_13)
 - nodepairs_(44,_14) <= 0
_C2611: edgepairs_((44,_46),_(14,_15)) - nodepairs_(44,_14)
 - nodepairs_(44,_15) <= 0
_C2612: edgepairs_((44,_46),_(15,_16)) - nodepairs_(44,_15)
 - nodepairs_(44,_16) <= 0
_C2613: edgepairs_((43,_44),_(17,_18)) + edgepairs_((44,_45),_(17,_18))
 - nodepairs_(44,_17) <= 0
_C2614: edgepairs_((43,_44),_(18,_19)) + edgepairs_((44,_45),_(18,_19))
 - nodepairs_(44,_19) <= 0
_C2615: edgepairs_((43,_44),_(19,_20)) + edgepairs_((44,_45),_(19,_20))
 - nodepairs_(44,_19) <= 0
_C2616: edgepairs_((44,_46),_(19,_21)) - nodepairs_(44,_19)
 - nodepairs_(44,_21) <= 0
_C2617: edgepairs_((44,_46),_(21,_22)) - nodepairs_(44,_21)
 - nodepairs_(44,_22) <= 0
_C2618: edgepairs_((44,_46),_(22,_23)) - nodepairs_(44,_22)
 - nodepairs_(44,_23) <= 0
_C2619: edgepairs_((44,_46),_(23,_24)) - nodepairs_(44,_23)
 - nodepairs_(44,_24) <= 0
_C262: edgepairs_((0,_1),_(42,_44)) + edgepairs_((0,_26),_(42,_44))
 - nodepairs_(0,_42) - nodepairs_(0,_44) <= 0
_C2620: edgepairs_((44,_46),_(24,_25)) - nodepairs_(44,_24)
 - nodepairs_(44,_25) <= 0
_C2621: edgepairs_((44,_46),_(25,_26)) - nodepairs_(44,_25)
 - nodepairs_(44,_26) <= 0
_C2622: edgepairs_((44,_46),_(26,_27)) - nodepairs_(44,_26)
 - nodepairs_(44,_27) <= 0
_C2623: edgepairs_((44,_46),_(27,_28)) - nodepairs_(44,_27)
 - nodepairs_(44,_28) <= 0
_C2624: edgepairs_((44,_46),_(28,_29)) - nodepairs_(44,_28)
 - nodepairs_(44,_29) <= 0
_C2625: edgepairs_((44,_46),_(29,_30)) - nodepairs_(44,_29)
 - nodepairs_(44,_30) <= 0
_C2626: edgepairs_((44,_46),_(30,_31)) - nodepairs_(44,_30)
 - nodepairs_(44,_31) <= 0
_C2627: edgepairs_((44,_46),_(31,_32)) - nodepairs_(44,_31)
 - nodepairs_(44,_32) <= 0
_C2628: edgepairs_((44,_46),_(32,_33)) - nodepairs_(44,_32)
 - nodepairs_(44,_33) <= 0
_C2629: edgepairs_((44,_46),_(33,_34)) - nodepairs_(44,_33)
 - nodepairs_(44,_34) <= 0
_C263: edgepairs_((0,_1),_(44,_45)) + edgepairs_((0,_26),_(44,_45))
 - nodepairs_(0,_44) - nodepairs_(0,_45) <= 0
_C2630: edgepairs_((44,_46),_(34,_35)) - nodepairs_(44,_34)
 - nodepairs_(44,_35) <= 0
_C2631: edgepairs_((44,_46),_(35,_36)) - nodepairs_(44,_35)
 - nodepairs_(44,_36) <= 0
_C2632: edgepairs_((44,_46),_(36,_37)) - nodepairs_(44,_36)
 - nodepairs_(44,_37) <= 0
_C2633: edgepairs_((44,_46),_(37,_38)) - nodepairs_(44,_37)
 - nodepairs_(44,_38) <= 0
_C2634: edgepairs_((44,_46),_(37,_39)) - nodepairs_(44,_37)
 - nodepairs_(44,_39) <= 0
_C2635: edgepairs_((44,_46),_(39,_40)) - nodepairs_(44,_39)
 - nodepairs_(44,_40) <= 0
_C2636: edgepairs_((43,_44),_(41,_42)) + edgepairs_((44,_45),_(41,_42))
 - nodepairs_(44,_42) <= 0
_C2637: edgepairs_((43,_44),_(42,_43)) + edgepairs_((44,_45),_(42,_43))
 - nodepairs_(44,_42) <= 0
_C2638: edgepairs_((44,_46),_(42,_44)) - nodepairs_(44,_42)
 - nodepairs_(44,_44) <= 0
_C2639: edgepairs_((44,_46),_(44,_45)) - nodepairs_(44,_44)
 - nodepairs_(44,_45) <= 0
_C264: edgepairs_((0,_1),_(45,_46)) + edgepairs_((0,_26),_(45,_46))
 - nodepairs_(0,_45) - nodepairs_(0,_46) <= 0
_C2640: edgepairs_((44,_46),_(45,_46)) - nodepairs_(44,_45)
 - nodepairs_(44,_46) <= 0
_C2641: edgepairs_((44,_46),_(46,_47)) - nodepairs_(44,_46)
 - nodepairs_(44,_47) <= 0
_C2642: edgepairs_((44,_46),_(47,_48)) - nodepairs_(44,_47)
 - nodepairs_(44,_48) <= 0
_C2643: edgepairs_((44,_46),_(48,_49)) - nodepairs_(44,_48)
 - nodepairs_(44,_49) <= 0
_C2644: edgepairs_((44,_46),_(49,_50)) - nodepairs_(44,_49)
 - nodepairs_(44,_50) <= 0
_C2645: edgepairs_((44,_46),_(50,_51)) - nodepairs_(44,_50)
 - nodepairs_(44,_51) <= 0
_C2646: edgepairs_((44,_46),_(51,_52)) - nodepairs_(44,_51)
 - nodepairs_(44,_52) <= 0
_C2647: edgepairs_((44,_46),_(52,_53)) - nodepairs_(44,_52)
 - nodepairs_(44,_53) <= 0
_C2648: edgepairs_((44,_46),_(53,_54)) - nodepairs_(44,_53)
 - nodepairs_(44,_54) <= 0
_C2649: __dummy <= 0
_C265: edgepairs_((0,_1),_(46,_47)) + edgepairs_((0,_26),_(46,_47))
 - nodepairs_(0,_46) - nodepairs_(0,_47) <= 0
_C2650: __dummy <= 0
_C2651: edgepairs_((44,_45),_(0,_41)) - nodepairs_(45,_41) <= 0
_C2652: edgepairs_((44,_45),_(1,_2)) - nodepairs_(45,_2) <= 0
_C2653: edgepairs_((44,_45),_(2,_3)) - nodepairs_(45,_2) <= 0
_C2654: edgepairs_((44,_45),_(3,_4)) - nodepairs_(45,_4) <= 0
_C2655: __dummy <= 0
_C2656: __dummy <= 0
_C2657: __dummy <= 0
_C2658: __dummy <= 0
_C2659: __dummy <= 0
_C266: edgepairs_((0,_1),_(47,_48)) + edgepairs_((0,_26),_(47,_48))
 - nodepairs_(0,_47) - nodepairs_(0,_48) <= 0
_C2660: __dummy <= 0
_C2661: __dummy <= 0
_C2662: __dummy <= 0
_C2663: __dummy <= 0
_C2664: __dummy <= 0
_C2665: __dummy <= 0
_C2666: __dummy <= 0
_C2667: edgepairs_((44,_45),_(17,_18)) - nodepairs_(45,_18) <= 0
_C2668: edgepairs_((44,_45),_(18,_19)) - nodepairs_(45,_18) <= 0
_C2669: edgepairs_((44,_45),_(19,_20)) - nodepairs_(45,_20) <= 0
_C267: edgepairs_((0,_1),_(48,_49)) + edgepairs_((0,_26),_(48,_49))
 - nodepairs_(0,_48) - nodepairs_(0,_49) <= 0
_C2670: __dummy <= 0
_C2671: __dummy <= 0
_C2672: __dummy <= 0
_C2673: __dummy <= 0
_C2674: __dummy <= 0
_C2675: __dummy <= 0
_C2676: __dummy <= 0
_C2677: __dummy <= 0
_C2678: __dummy <= 0
_C2679: __dummy <= 0
_C268: edgepairs_((0,_1),_(49,_50)) + edgepairs_((0,_26),_(49,_50))
 - nodepairs_(0,_49) - nodepairs_(0,_50) <= 0
_C2680: __dummy <= 0
_C2681: __dummy <= 0
_C2682: __dummy <= 0
_C2683: __dummy <= 0
_C2684: __dummy <= 0
_C2685: __dummy <= 0
_C2686: __dummy <= 0
_C2687: __dummy <= 0
_C2688: __dummy <= 0
_C2689: __dummy <= 0
_C269: edgepairs_((0,_1),_(50,_51)) + edgepairs_((0,_26),_(50,_51))
 - nodepairs_(0,_50) - nodepairs_(0,_51) <= 0
_C2690: edgepairs_((44,_45),_(41,_42)) - nodepairs_(45,_41) <= 0
_C2691: edgepairs_((44,_45),_(42,_43)) - nodepairs_(45,_43) <= 0
_C2692: __dummy <= 0
_C2693: __dummy <= 0
_C2694: __dummy <= 0
_C2695: __dummy <= 0
_C2696: __dummy <= 0
_C2697: __dummy <= 0
_C2698: __dummy <= 0
_C2699: __dummy <= 0
_C27: nodepairs_(26,_0) + nodepairs_(26,_1) + nodepairs_(26,_10)
 + nodepairs_(26,_11) + nodepairs_(26,_12) + nodepairs_(26,_13)
 + nodepairs_(26,_14) + nodepairs_(26,_15) + nodepairs_(26,_16)
 + nodepairs_(26,_17) + nodepairs_(26,_19) + nodepairs_(26,_21)
 + nodepairs_(26,_22) + nodepairs_(26,_23) + nodepairs_(26,_24)
 + nodepairs_(26,_25) + nodepairs_(26,_26) + nodepairs_(26,_27)
 + nodepairs_(26,_28) + nodepairs_(26,_29) + nodepairs_(26,_3)
 + nodepairs_(26,_30) + nodepairs_(26,_31) + nodepairs_(26,_32)
 + nodepairs_(26,_33) + nodepairs_(26,_34) + nodepairs_(26,_35)
 + nodepairs_(26,_36) + nodepairs_(26,_37) + nodepairs_(26,_38)
 + nodepairs_(26,_39) + nodepairs_(26,_40) + nodepairs_(26,_42)
 + nodepairs_(26,_44) + nodepairs_(26,_45) + nodepairs_(26,_46)
 + nodepairs_(26,_47) + nodepairs_(26,_48) + nodepairs_(26,_49)
 + nodepairs_(26,_5) + nodepairs_(26,_50) + nodepairs_(26,_51)
 + nodepairs_(26,_52) + nodepairs_(26,_53) + nodepairs_(26,_54)
 + nodepairs_(26,_6) + nodepairs_(26,_7) + nodepairs_(26,_8)
 + nodepairs_(26,_9) <= 1
_C270: edgepairs_((0,_1),_(51,_52)) + edgepairs_((0,_26),_(51,_52))
 - nodepairs_(0,_51) - nodepairs_(0,_52) <= 0
_C2700: __dummy <= 0
_C2701: __dummy <= 0
_C2702: __dummy <= 0
_C2703: edgepairs_((44,_46),_(0,_1)) + edgepairs_((46,_47),_(0,_1))
 - nodepairs_(46,_0) - nodepairs_(46,_1) <= 0
_C2704: edgepairs_((44,_46),_(0,_17)) + edgepairs_((46,_47),_(0,_17))
 - nodepairs_(46,_0) - nodepairs_(46,_17) <= 0
_C2705: - nodepairs_(46,_0) <= 0
_C2706: - nodepairs_(46,_1) <= 0
_C2707: - nodepairs_(46,_3) <= 0
_C2708: - nodepairs_(46,_3) <= 0
_C2709: edgepairs_((44,_46),_(3,_5)) + edgepairs_((46,_47),_(3,_5))
 - nodepairs_(46,_3) - nodepairs_(46,_5) <= 0
_C271: edgepairs_((0,_1),_(52,_53)) + edgepairs_((0,_26),_(52,_53))
 - nodepairs_(0,_52) - nodepairs_(0,_53) <= 0
_C2710: edgepairs_((44,_46),_(5,_6)) + edgepairs_((46,_47),_(5,_6))
 - nodepairs_(46,_5) - nodepairs_(46,_6) <= 0
_C2711: edgepairs_((44,_46),_(6,_7)) + edgepairs_((46,_47),_(6,_7))
 - nodepairs_(46,_6) - nodepairs_(46,_7) <= 0
_C2712: edgepairs_((44,_46),_(7,_8)) + edgepairs_((46,_47),_(7,_8))
 - nodepairs_(46,_7) - nodepairs_(46,_8) <= 0
_C2713: edgepairs_((44,_46),_(8,_9)) + edgepairs_((46,_47),_(8,_9))
 - nodepairs_(46,_8) - nodepairs_(46,_9) <= 0
_C2714: edgepairs_((44,_46),_(9,_10)) + edgepairs_((46,_47),_(9,_10))
 - nodepairs_(46,_10) - nodepairs_(46,_9) <= 0
_C2715: edgepairs_((44,_46),_(10,_11)) + edgepairs_((46,_47),_(10,_11))
 - nodepairs_(46,_10) - nodepairs_(46,_11) <= 0
_C2716: edgepairs_((44,_46),_(11,_12)) + edgepairs_((46,_47),_(11,_12))
 - nodepairs_(46,_11) - nodepairs_(46,_12) <= 0
_C2717: edgepairs_((44,_46),_(12,_13)) + edgepairs_((46,_47),_(12,_13))
 - nodepairs_(46,_12) - nodepairs_(46,_13) <= 0
_C2718: edgepairs_((44,_46),_(13,_14)) + edgepairs_((46,_47),_(13,_14))
 - nodepairs_(46,_13) - nodepairs_(46,_14) <= 0
_C2719: edgepairs_((44,_46),_(14,_15)) + edgepairs_((46,_47),_(14,_15))
 - nodepairs_(46,_14) - nodepairs_(46,_15) <= 0
_C272: edgepairs_((0,_1),_(53,_54)) + edgepairs_((0,_26),_(53,_54))
 - nodepairs_(0,_53) - nodepairs_(0,_54) <= 0
_C2720: edgepairs_((44,_46),_(15,_16)) + edgepairs_((46,_47),_(15,_16))
 - nodepairs_(46,_15) - nodepairs_(46,_16) <= 0
_C2721: - nodepairs_(46,_17) <= 0
_C2722: - nodepairs_(46,_19) <= 0
_C2723: - nodepairs_(46,_19) <= 0
_C2724: edgepairs_((44,_46),_(19,_21)) + edgepairs_((46,_47),_(19,_21))
 - nodepairs_(46,_19) - nodepairs_(46,_21) <= 0
_C2725: edgepairs_((44,_46),_(21,_22)) + edgepairs_((46,_47),_(21,_22))
 - nodepairs_(46,_21) - nodepairs_(46,_22) <= 0
_C2726: edgepairs_((44,_46),_(22,_23)) + edgepairs_((46,_47),_(22,_23))
 - nodepairs_(46,_22) - nodepairs_(46,_23) <= 0
_C2727: edgepairs_((44,_46),_(23,_24)) + edgepairs_((46,_47),_(23,_24))
 - nodepairs_(46,_23) - nodepairs_(46,_24) <= 0
_C2728: edgepairs_((44,_46),_(24,_25)) + edgepairs_((46,_47),_(24,_25))
 - nodepairs_(46,_24) - nodepairs_(46,_25) <= 0
_C2729: edgepairs_((44,_46),_(25,_26)) + edgepairs_((46,_47),_(25,_26))
 - nodepairs_(46,_25) - nodepairs_(46,_26) <= 0
_C273: edgepairs_((0,_1),_(0,_1)) - nodepairs_(1,_0) - nodepairs_(1,_1) <= 0
_C2730: edgepairs_((44,_46),_(26,_27)) + edgepairs_((46,_47),_(26,_27))
 - nodepairs_(46,_26) - nodepairs_(46,_27) <= 0
_C2731: edgepairs_((44,_46),_(27,_28)) + edgepairs_((46,_47),_(27,_28))
 - nodepairs_(46,_27) - nodepairs_(46,_28) <= 0
_C2732: edgepairs_((44,_46),_(28,_29)) + edgepairs_((46,_47),_(28,_29))
 - nodepairs_(46,_28) - nodepairs_(46,_29) <= 0
_C2733: edgepairs_((44,_46),_(29,_30)) + edgepairs_((46,_47),_(29,_30))
 - nodepairs_(46,_29) - nodepairs_(46,_30) <= 0
_C2734: edgepairs_((44,_46),_(30,_31)) + edgepairs_((46,_47),_(30,_31))
 - nodepairs_(46,_30) - nodepairs_(46,_31) <= 0
_C2735: edgepairs_((44,_46),_(31,_32)) + edgepairs_((46,_47),_(31,_32))
 - nodepairs_(46,_31) - nodepairs_(46,_32) <= 0
_C2736: edgepairs_((44,_46),_(32,_33)) + edgepairs_((46,_47),_(32,_33))
 - nodepairs_(46,_32) - nodepairs_(46,_33) <= 0
_C2737: edgepairs_((44,_46),_(33,_34)) + edgepairs_((46,_47),_(33,_34))
 - nodepairs_(46,_33) - nodepairs_(46,_34) <= 0
_C2738: edgepairs_((44,_46),_(34,_35)) + edgepairs_((46,_47),_(34,_35))
 - nodepairs_(46,_34) - nodepairs_(46,_35) <= 0
_C2739: edgepairs_((44,_46),_(35,_36)) + edgepairs_((46,_47),_(35,_36))
 - nodepairs_(46,_35) - nodepairs_(46,_36) <= 0
_C274: edgepairs_((0,_1),_(0,_17)) - nodepairs_(1,_0) - nodepairs_(1,_17) <= 0
_C2740: edgepairs_((44,_46),_(36,_37)) + edgepairs_((46,_47),_(36,_37))
 - nodepairs_(46,_36) - nodepairs_(46,_37) <= 0
_C2741: edgepairs_((44,_46),_(37,_38)) + edgepairs_((46,_47),_(37,_38))
 - nodepairs_(46,_37) - nodepairs_(46,_38) <= 0
_C2742: edgepairs_((44,_46),_(37,_39)) + edgepairs_((46,_47),_(37,_39))
 - nodepairs_(46,_37) - nodepairs_(46,_39) <= 0
_C2743: edgepairs_((44,_46),_(39,_40)) + edgepairs_((46,_47),_(39,_40))
 - nodepairs_(46,_39) - nodepairs_(46,_40) <= 0
_C2744: - nodepairs_(46,_42) <= 0
_C2745: - nodepairs_(46,_42) <= 0
_C2746: edgepairs_((44,_46),_(42,_44)) + edgepairs_((46,_47),_(42,_44))
 - nodepairs_(46,_42) - nodepairs_(46,_44) <= 0
_C2747: edgepairs_((44,_46),_(44,_45)) + edgepairs_((46,_47),_(44,_45))
 - nodepairs_(46,_44) - nodepairs_(46,_45) <= 0
_C2748: edgepairs_((44,_46),_(45,_46)) + edgepairs_((46,_47),_(45,_46))
 - nodepairs_(46,_45) - nodepairs_(46,_46) <= 0
_C2749: edgepairs_((44,_46),_(46,_47)) + edgepairs_((46,_47),_(46,_47))
 - nodepairs_(46,_46) - nodepairs_(46,_47) <= 0
_C275: edgepairs_((1,_2),_(0,_41)) - nodepairs_(1,_0) <= 0
_C2750: edgepairs_((44,_46),_(47,_48)) + edgepairs_((46,_47),_(47,_48))
 - nodepairs_(46,_47) - nodepairs_(46,_48) <= 0
_C2751: edgepairs_((44,_46),_(48,_49)) + edgepairs_((46,_47),_(48,_49))
 - nodepairs_(46,_48) - nodepairs_(46,_49) <= 0
_C2752: edgepairs_((44,_46),_(49,_50)) + edgepairs_((46,_47),_(49,_50))
 - nodepairs_(46,_49) - nodepairs_(46,_50) <= 0
_C2753: edgepairs_((44,_46),_(50,_51)) + edgepairs_((46,_47),_(50,_51))
 - nodepairs_(46,_50) - nodepairs_(46,_51) <= 0
_C2754: edgepairs_((44,_46),_(51,_52)) + edgepairs_((46,_47),_(51,_52))
 - nodepairs_(46,_51) - nodepairs_(46,_52) <= 0
_C2755: edgepairs_((44,_46),_(52,_53)) + edgepairs_((46,_47),_(52,_53))
 - nodepairs_(46,_52) - nodepairs_(46,_53) <= 0
_C2756: edgepairs_((44,_46),_(53,_54)) + edgepairs_((46,_47),_(53,_54))
 - nodepairs_(46,_53) - nodepairs_(46,_54) <= 0
_C2757: edgepairs_((46,_47),_(0,_1)) + edgepairs_((47,_48),_(0,_1))
 - nodepairs_(47,_0) - nodepairs_(47,_1) <= 0
_C2758: edgepairs_((46,_47),_(0,_17)) + edgepairs_((47,_48),_(0,_17))
 - nodepairs_(47,_0) - nodepairs_(47,_17) <= 0
_C2759: - nodepairs_(47,_0) <= 0
_C276: edgepairs_((1,_2),_(1,_2)) - nodepairs_(1,_1) <= 0
_C2760: - nodepairs_(47,_1) <= 0
_C2761: - nodepairs_(47,_3) <= 0
_C2762: - nodepairs_(47,_3) <= 0
_C2763: edgepairs_((46,_47),_(3,_5)) + edgepairs_((47,_48),_(3,_5))
 - nodepairs_(47,_3) - nodepairs_(47,_5) <= 0
_C2764: edgepairs_((46,_47),_(5,_6)) + edgepairs_((47,_48),_(5,_6))
 - nodepairs_(47,_5) - nodepairs_(47,_6) <= 0
_C2765: edgepairs_((46,_47),_(6,_7)) + edgepairs_((47,_48),_(6,_7))
 - nodepairs_(47,_6) - nodepairs_(47,_7) <= 0
_C2766: edgepairs_((46,_47),_(7,_8)) + edgepairs_((47,_48),_(7,_8))
 - nodepairs_(47,_7) - nodepairs_(47,_8) <= 0
_C2767: edgepairs_((46,_47),_(8,_9)) + edgepairs_((47,_48),_(8,_9))
 - nodepairs_(47,_8) - nodepairs_(47,_9) <= 0
_C2768: edgepairs_((46,_47),_(9,_10)) + edgepairs_((47,_48),_(9,_10))
 - nodepairs_(47,_10) - nodepairs_(47,_9) <= 0
_C2769: edgepairs_((46,_47),_(10,_11)) + edgepairs_((47,_48),_(10,_11))
 - nodepairs_(47,_10) - nodepairs_(47,_11) <= 0
_C277: edgepairs_((1,_2),_(2,_3)) - nodepairs_(1,_3) <= 0
_C2770: edgepairs_((46,_47),_(11,_12)) + edgepairs_((47,_48),_(11,_12))
 - nodepairs_(47,_11) - nodepairs_(47,_12) <= 0
_C2771: edgepairs_((46,_47),_(12,_13)) + edgepairs_((47,_48),_(12,_13))
 - nodepairs_(47,_12) - nodepairs_(47,_13) <= 0
_C2772: edgepairs_((46,_47),_(13,_14)) + edgepairs_((47,_48),_(13,_14))
 - nodepairs_(47,_13) - nodepairs_(47,_14) <= 0
_C2773: edgepairs_((46,_47),_(14,_15)) + edgepairs_((47,_48),_(14,_15))
 - nodepairs_(47,_14) - nodepairs_(47,_15) <= 0
_C2774: edgepairs_((46,_47),_(15,_16)) + edgepairs_((47,_48),_(15,_16))
 - nodepairs_(47,_15) - nodepairs_(47,_16) <= 0
_C2775: - nodepairs_(47,_17) <= 0
_C2776: - nodepairs_(47,_19) <= 0
_C2777: - nodepairs_(47,_19) <= 0
_C2778: edgepairs_((46,_47),_(19,_21)) + edgepairs_((47,_48),_(19,_21))
 - nodepairs_(47,_19) - nodepairs_(47,_21) <= 0
_C2779: edgepairs_((46,_47),_(21,_22)) + edgepairs_((47,_48),_(21,_22))
 - nodepairs_(47,_21) - nodepairs_(47,_22) <= 0
_C278: edgepairs_((1,_2),_(3,_4)) - nodepairs_(1,_3) <= 0
_C2780: edgepairs_((46,_47),_(22,_23)) + edgepairs_((47,_48),_(22,_23))
 - nodepairs_(47,_22) - nodepairs_(47,_23) <= 0
_C2781: edgepairs_((46,_47),_(23,_24)) + edgepairs_((47,_48),_(23,_24))
 - nodepairs_(47,_23) - nodepairs_(47,_24) <= 0
_C2782: edgepairs_((46,_47),_(24,_25)) + edgepairs_((47,_48),_(24,_25))
 - nodepairs_(47,_24) - nodepairs_(47,_25) <= 0
_C2783: edgepairs_((46,_47),_(25,_26)) + edgepairs_((47,_48),_(25,_26))
 - nodepairs_(47,_25) - nodepairs_(47,_26) <= 0
_C2784: edgepairs_((46,_47),_(26,_27)) + edgepairs_((47,_48),_(26,_27))
 - nodepairs_(47,_26) - nodepairs_(47,_27) <= 0
_C2785: edgepairs_((46,_47),_(27,_28)) + edgepairs_((47,_48),_(27,_28))
 - nodepairs_(47,_27) - nodepairs_(47,_28) <= 0
_C2786: edgepairs_((46,_47),_(28,_29)) + edgepairs_((47,_48),_(28,_29))
 - nodepairs_(47,_28) - nodepairs_(47,_29) <= 0
_C2787: edgepairs_((46,_47),_(29,_30)) + edgepairs_((47,_48),_(29,_30))
 - nodepairs_(47,_29) - nodepairs_(47,_30) <= 0
_C2788: edgepairs_((46,_47),_(30,_31)) + edgepairs_((47,_48),_(30,_31))
 - nodepairs_(47,_30) - nodepairs_(47,_31) <= 0
_C2789: edgepairs_((46,_47),_(31,_32)) + edgepairs_((47,_48),_(31,_32))
 - nodepairs_(47,_31) - nodepairs_(47,_32) <= 0
_C279: edgepairs_((0,_1),_(3,_5)) - nodepairs_(1,_3) - nodepairs_(1,_5) <= 0
_C2790: edgepairs_((46,_47),_(32,_33)) + edgepairs_((47,_48),_(32,_33))
 - nodepairs_(47,_32) - nodepairs_(47,_33) <= 0
_C2791: edgepairs_((46,_47),_(33,_34)) + edgepairs_((47,_48),_(33,_34))
 - nodepairs_(47,_33) - nodepairs_(47,_34) <= 0
_C2792: edgepairs_((46,_47),_(34,_35)) + edgepairs_((47,_48),_(34,_35))
 - nodepairs_(47,_34) - nodepairs_(47,_35) <= 0
_C2793: edgepairs_((46,_47),_(35,_36)) + edgepairs_((47,_48),_(35,_36))
 - nodepairs_(47,_35) - nodepairs_(47,_36) <= 0
_C2794: edgepairs_((46,_47),_(36,_37)) + edgepairs_((47,_48),_(36,_37))
 - nodepairs_(47,_36) - nodepairs_(47,_37) <= 0
_C2795: edgepairs_((46,_47),_(37,_38)) + edgepairs_((47,_48),_(37,_38))
 - nodepairs_(47,_37) - nodepairs_(47,_38) <= 0
_C2796: edgepairs_((46,_47),_(37,_39)) + edgepairs_((47,_48),_(37,_39))
 - nodepairs_(47,_37) - nodepairs_(47,_39) <= 0
_C2797: edgepairs_((46,_47),_(39,_40)) + edgepairs_((47,_48),_(39,_40))
 - nodepairs_(47,_39) - nodepairs_(47,_40) <= 0
_C2798: - nodepairs_(47,_42) <= 0
_C2799: - nodepairs_(47,_42) <= 0
_C28: nodepairs_(27,_18) + nodepairs_(27,_2) + nodepairs_(27,_20)
 + nodepairs_(27,_4) + nodepairs_(27,_41) + nodepairs_(27,_43) <= 1
_C280: edgepairs_((0,_1),_(5,_6)) - nodepairs_(1,_5) - nodepairs_(1,_6) <= 0
_C2800: edgepairs_((46,_47),_(42,_44)) + edgepairs_((47,_48),_(42,_44))
 - nodepairs_(47,_42) - nodepairs_(47,_44) <= 0
_C2801: edgepairs_((46,_47),_(44,_45)) + edgepairs_((47,_48),_(44,_45))
 - nodepairs_(47,_44) - nodepairs_(47,_45) <= 0
_C2802: edgepairs_((46,_47),_(45,_46)) + edgepairs_((47,_48),_(45,_46))
 - nodepairs_(47,_45) - nodepairs_(47,_46) <= 0
_C2803: edgepairs_((46,_47),_(46,_47)) + edgepairs_((47,_48),_(46,_47))
 - nodepairs_(47,_46) - nodepairs_(47,_47) <= 0
_C2804: edgepairs_((46,_47),_(47,_48)) + edgepairs_((47,_48),_(47,_48))
 - nodepairs_(47,_47) - nodepairs_(47,_48) <= 0
_C2805: edgepairs_((46,_47),_(48,_49)) + edgepairs_((47,_48),_(48,_49))
 - nodepairs_(47,_48) - nodepairs_(47,_49) <= 0
_C2806: edgepairs_((46,_47),_(49,_50)) + edgepairs_((47,_48),_(49,_50))
 - nodepairs_(47,_49) - nodepairs_(47,_50) <= 0
_C2807: edgepairs_((46,_47),_(50,_51)) + edgepairs_((47,_48),_(50,_51))
 - nodepairs_(47,_50) - nodepairs_(47,_51) <= 0
_C2808: edgepairs_((46,_47),_(51,_52)) + edgepairs_((47,_48),_(51,_52))
 - nodepairs_(47,_51) - nodepairs_(47,_52) <= 0
_C2809: edgepairs_((46,_47),_(52,_53)) + edgepairs_((47,_48),_(52,_53))
 - nodepairs_(47,_52) - nodepairs_(47,_53) <= 0
_C281: edgepairs_((0,_1),_(6,_7)) - nodepairs_(1,_6) - nodepairs_(1,_7) <= 0
_C2810: edgepairs_((46,_47),_(53,_54)) + edgepairs_((47,_48),_(53,_54))
 - nodepairs_(47,_53) - nodepairs_(47,_54) <= 0
_C2811: edgepairs_((47,_48),_(0,_1)) + edgepairs_((48,_49),_(0,_1))
 - nodepairs_(48,_0) - nodepairs_(48,_1) <= 0
_C2812: edgepairs_((47,_48),_(0,_17)) + edgepairs_((48,_49),_(0,_17))
 - nodepairs_(48,_0) - nodepairs_(48,_17) <= 0
_C2813: - nodepairs_(48,_0) <= 0
_C2814: - nodepairs_(48,_1) <= 0
_C2815: - nodepairs_(48,_3) <= 0
_C2816: - nodepairs_(48,_3) <= 0
_C2817: edgepairs_((47,_48),_(3,_5)) + edgepairs_((48,_49),_(3,_5))
 - nodepairs_(48,_3) - nodepairs_(48,_5) <= 0
_C2818: edgepairs_((47,_48),_(5,_6)) + edgepairs_((48,_49),_(5,_6))
 - nodepairs_(48,_5) - nodepairs_(48,_6) <= 0
_C2819: edgepairs_((47,_48),_(6,_7)) + edgepairs_((48,_49),_(6,_7))
 - nodepairs_(48,_6) - nodepairs_(48,_7) <= 0
_C282: edgepairs_((0,_1),_(7,_8)) - nodepairs_(1,_7) - nodepairs_(1,_8) <= 0
_C2820: edgepairs_((47,_48),_(7,_8)) + edgepairs_((48,_49),_(7,_8))
 - nodepairs_(48,_7) - nodepairs_(48,_8) <= 0
_C2821: edgepairs_((47,_48),_(8,_9)) + edgepairs_((48,_49),_(8,_9))
 - nodepairs_(48,_8) - nodepairs_(48,_9) <= 0
_C2822: edgepairs_((47,_48),_(9,_10)) + edgepairs_((48,_49),_(9,_10))
 - nodepairs_(48,_10) - nodepairs_(48,_9) <= 0
_C2823: edgepairs_((47,_48),_(10,_11)) + edgepairs_((48,_49),_(10,_11))
 - nodepairs_(48,_10) - nodepairs_(48,_11) <= 0
_C2824: edgepairs_((47,_48),_(11,_12)) + edgepairs_((48,_49),_(11,_12))
 - nodepairs_(48,_11) - nodepairs_(48,_12) <= 0
_C2825: edgepairs_((47,_48),_(12,_13)) + edgepairs_((48,_49),_(12,_13))
 - nodepairs_(48,_12) - nodepairs_(48,_13) <= 0
_C2826: edgepairs_((47,_48),_(13,_14)) + edgepairs_((48,_49),_(13,_14))
 - nodepairs_(48,_13) - nodepairs_(48,_14) <= 0
_C2827: edgepairs_((47,_48),_(14,_15)) + edgepairs_((48,_49),_(14,_15))
 - nodepairs_(48,_14) - nodepairs_(48,_15) <= 0
_C2828: edgepairs_((47,_48),_(15,_16)) + edgepairs_((48,_49),_(15,_16))
 - nodepairs_(48,_15) - nodepairs_(48,_16) <= 0
_C2829: - nodepairs_(48,_17) <= 0
_C283: edgepairs_((0,_1),_(8,_9)) - nodepairs_(1,_8) - nodepairs_(1,_9) <= 0
_C2830: - nodepairs_(48,_19) <= 0
_C2831: - nodepairs_(48,_19) <= 0
_C2832: edgepairs_((47,_48),_(19,_21)) + edgepairs_((48,_49),_(19,_21))
 - nodepairs_(48,_19) - nodepairs_(48,_21) <= 0
_C2833: edgepairs_((47,_48),_(21,_22)) + edgepairs_((48,_49),_(21,_22))
 - nodepairs_(48,_21) - nodepairs_(48,_22) <= 0
_C2834: edgepairs_((47,_48),_(22,_23)) + edgepairs_((48,_49),_(22,_23))
 - nodepairs_(48,_22) - nodepairs_(48,_23) <= 0
_C2835: edgepairs_((47,_48),_(23,_24)) + edgepairs_((48,_49),_(23,_24))
 - nodepairs_(48,_23) - nodepairs_(48,_24) <= 0
_C2836: edgepairs_((47,_48),_(24,_25)) + edgepairs_((48,_49),_(24,_25))
 - nodepairs_(48,_24) - nodepairs_(48,_25) <= 0
_C2837: edgepairs_((47,_48),_(25,_26)) + edgepairs_((48,_49),_(25,_26))
 - nodepairs_(48,_25) - nodepairs_(48,_26) <= 0
_C2838: edgepairs_((47,_48),_(26,_27)) + edgepairs_((48,_49),_(26,_27))
 - nodepairs_(48,_26) - nodepairs_(48,_27) <= 0
_C2839: edgepairs_((47,_48),_(27,_28)) + edgepairs_((48,_49),_(27,_28))
 - nodepairs_(48,_27) - nodepairs_(48,_28) <= 0
_C284: edgepairs_((0,_1),_(9,_10)) - nodepairs_(1,_10) - nodepairs_(1,_9) <= 0
_C2840: edgepairs_((47,_48),_(28,_29)) + edgepairs_((48,_49),_(28,_29))
 - nodepairs_(48,_28) - nodepairs_(48,_29) <= 0
_C2841: edgepairs_((47,_48),_(29,_30)) + edgepairs_((48,_49),_(29,_30))
 - nodepairs_(48,_29) - nodepairs_(48,_30) <= 0
_C2842: edgepairs_((47,_48),_(30,_31)) + edgepairs_((48,_49),_(30,_31))
 - nodepairs_(48,_30) - nodepairs_(48,_31) <= 0
_C2843: edgepairs_((47,_48),_(31,_32)) + edgepairs_((48,_49),_(31,_32))
 - nodepairs_(48,_31) - nodepairs_(48,_32) <= 0
_C2844: edgepairs_((47,_48),_(32,_33)) + edgepairs_((48,_49),_(32,_33))
 - nodepairs_(48,_32) - nodepairs_(48,_33) <= 0
_C2845: edgepairs_((47,_48),_(33,_34)) + edgepairs_((48,_49),_(33,_34))
 - nodepairs_(48,_33) - nodepairs_(48,_34) <= 0
_C2846: edgepairs_((47,_48),_(34,_35)) + edgepairs_((48,_49),_(34,_35))
 - nodepairs_(48,_34) - nodepairs_(48,_35) <= 0
_C2847: edgepairs_((47,_48),_(35,_36)) + edgepairs_((48,_49),_(35,_36))
 - nodepairs_(48,_35) - nodepairs_(48,_36) <= 0
_C2848: edgepairs_((47,_48),_(36,_37)) + edgepairs_((48,_49),_(36,_37))
 - nodepairs_(48,_36) - nodepairs_(48,_37) <= 0
_C2849: edgepairs_((47,_48),_(37,_38)) + edgepairs_((48,_49),_(37,_38))
 - nodepairs_(48,_37) - nodepairs_(48,_38) <= 0
_C285: edgepairs_((0,_1),_(10,_11)) - nodepairs_(1,_10) - nodepairs_(1,_11)
 <= 0
_C2850: edgepairs_((47,_48),_(37,_39)) + edgepairs_((48,_49),_(37,_39))
 - nodepairs_(48,_37) - nodepairs_(48,_39) <= 0
_C2851: edgepairs_((47,_48),_(39,_40)) + edgepairs_((48,_49),_(39,_40))
 - nodepairs_(48,_39) - nodepairs_(48,_40) <= 0
_C2852: - nodepairs_(48,_42) <= 0
_C2853: - nodepairs_(48,_42) <= 0
_C2854: edgepairs_((47,_48),_(42,_44)) + edgepairs_((48,_49),_(42,_44))
 - nodepairs_(48,_42) - nodepairs_(48,_44) <= 0
_C2855: edgepairs_((47,_48),_(44,_45)) + edgepairs_((48,_49),_(44,_45))
 - nodepairs_(48,_44) - nodepairs_(48,_45) <= 0
_C2856: edgepairs_((47,_48),_(45,_46)) + edgepairs_((48,_49),_(45,_46))
 - nodepairs_(48,_45) - nodepairs_(48,_46) <= 0
_C2857: edgepairs_((47,_48),_(46,_47)) + edgepairs_((48,_49),_(46,_47))
 - nodepairs_(48,_46) - nodepairs_(48,_47) <= 0
_C2858: edgepairs_((47,_48),_(47,_48)) + edgepairs_((48,_49),_(47,_48))
 - nodepairs_(48,_47) - nodepairs_(48,_48) <= 0
_C2859: edgepairs_((47,_48),_(48,_49)) + edgepairs_((48,_49),_(48,_49))
 - nodepairs_(48,_48) - nodepairs_(48,_49) <= 0
_C286: edgepairs_((0,_1),_(11,_12)) - nodepairs_(1,_11) - nodepairs_(1,_12)
 <= 0
_C2860: edgepairs_((47,_48),_(49,_50)) + edgepairs_((48,_49),_(49,_50))
 - nodepairs_(48,_49) - nodepairs_(48,_50) <= 0
_C2861: edgepairs_((47,_48),_(50,_51)) + edgepairs_((48,_49),_(50,_51))
 - nodepairs_(48,_50) - nodepairs_(48,_51) <= 0
_C2862: edgepairs_((47,_48),_(51,_52)) + edgepairs_((48,_49),_(51,_52))
 - nodepairs_(48,_51) - nodepairs_(48,_52) <= 0
_C2863: edgepairs_((47,_48),_(52,_53)) + edgepairs_((48,_49),_(52,_53))
 - nodepairs_(48,_52) - nodepairs_(48,_53) <= 0
_C2864: edgepairs_((47,_48),_(53,_54)) + edgepairs_((48,_49),_(53,_54))
 - nodepairs_(48,_53) - nodepairs_(48,_54) <= 0
_C2865: edgepairs_((48,_49),_(0,_1)) + edgepairs_((49,_50),_(0,_1))
 - nodepairs_(49,_0) - nodepairs_(49,_1) <= 0
_C2866: edgepairs_((48,_49),_(0,_17)) + edgepairs_((49,_50),_(0,_17))
 - nodepairs_(49,_0) - nodepairs_(49,_17) <= 0
_C2867: - nodepairs_(49,_0) <= 0
_C2868: - nodepairs_(49,_1) <= 0
_C2869: - nodepairs_(49,_3) <= 0
_C287: edgepairs_((0,_1),_(12,_13)) - nodepairs_(1,_12) - nodepairs_(1,_13)
 <= 0
_C2870: - nodepairs_(49,_3) <= 0
_C2871: edgepairs_((48,_49),_(3,_5)) + edgepairs_((49,_50),_(3,_5))
 - nodepairs_(49,_3) - nodepairs_(49,_5) <= 0
_C2872: edgepairs_((48,_49),_(5,_6)) + edgepairs_((49,_50),_(5,_6))
 - nodepairs_(49,_5) - nodepairs_(49,_6) <= 0
_C2873: edgepairs_((48,_49),_(6,_7)) + edgepairs_((49,_50),_(6,_7))
 - nodepairs_(49,_6) - nodepairs_(49,_7) <= 0
_C2874: edgepairs_((48,_49),_(7,_8)) + edgepairs_((49,_50),_(7,_8))
 - nodepairs_(49,_7) - nodepairs_(49,_8) <= 0
_C2875: edgepairs_((48,_49),_(8,_9)) + edgepairs_((49,_50),_(8,_9))
 - nodepairs_(49,_8) - nodepairs_(49,_9) <= 0
_C2876: edgepairs_((48,_49),_(9,_10)) + edgepairs_((49,_50),_(9,_10))
 - nodepairs_(49,_10) - nodepairs_(49,_9) <= 0
_C2877: edgepairs_((48,_49),_(10,_11)) + edgepairs_((49,_50),_(10,_11))
 - nodepairs_(49,_10) - nodepairs_(49,_11) <= 0
_C2878: edgepairs_((48,_49),_(11,_12)) + edgepairs_((49,_50),_(11,_12))
 - nodepairs_(49,_11) - nodepairs_(49,_12) <= 0
_C2879: edgepairs_((48,_49),_(12,_13)) + edgepairs_((49,_50),_(12,_13))
 - nodepairs_(49,_12) - nodepairs_(49,_13) <= 0
_C288: edgepairs_((0,_1),_(13,_14)) - nodepairs_(1,_13) - nodepairs_(1,_14)
 <= 0
_C2880: edgepairs_((48,_49),_(13,_14)) + edgepairs_((49,_50),_(13,_14))
 - nodepairs_(49,_13) - nodepairs_(49,_14) <= 0
_C2881: edgepairs_((48,_49),_(14,_15)) + edgepairs_((49,_50),_(14,_15))
 - nodepairs_(49,_14) - nodepairs_(49,_15) <= 0
_C2882: edgepairs_((48,_49),_(15,_16)) + edgepairs_((49,_50),_(15,_16))
 - nodepairs_(49,_15) - nodepairs_(49,_16) <= 0
_C2883: - nodepairs_(49,_17) <= 0
_C2884: - nodepairs_(49,_19) <= 0
_C2885: - nodepairs_(49,_19) <= 0
_C2886: edgepairs_((48,_49),_(19,_21)) + edgepairs_((49,_50),_(19,_21))
 - nodepairs_(49,_19) - nodepairs_(49,_21) <= 0
_C2887: edgepairs_((48,_49),_(21,_22)) + edgepairs_((49,_50),_(21,_22))
 - nodepairs_(49,_21) - nodepairs_(49,_22) <= 0
_C2888: edgepairs_((48,_49),_(22,_23)) + edgepairs_((49,_50),_(22,_23))
 - nodepairs_(49,_22) - nodepairs_(49,_23) <= 0
_C2889: edgepairs_((48,_49),_(23,_24)) + edgepairs_((49,_50),_(23,_24))
 - nodepairs_(49,_23) - nodepairs_(49,_24) <= 0
_C289: edgepairs_((0,_1),_(14,_15)) - nodepairs_(1,_14) - nodepairs_(1,_15)
 <= 0
_C2890: edgepairs_((48,_49),_(24,_25)) + edgepairs_((49,_50),_(24,_25))
 - nodepairs_(49,_24) - nodepairs_(49,_25) <= 0
_C2891: edgepairs_((48,_49),_(25,_26)) + edgepairs_((49,_50),_(25,_26))
 - nodepairs_(49,_25) - nodepairs_(49,_26) <= 0
_C2892: edgepairs_((48,_49),_(26,_27)) + edgepairs_((49,_50),_(26,_27))
 - nodepairs_(49,_26) - nodepairs_(49,_27) <= 0
_C2893: edgepairs_((48,_49),_(27,_28)) + edgepairs_((49,_50),_(27,_28))
 - nodepairs_(49,_27) - nodepairs_(49,_28) <= 0
_C2894: edgepairs_((48,_49),_(28,_29)) + edgepairs_((49,_50),_(28,_29))
 - nodepairs_(49,_28) - nodepairs_(49,_29) <= 0
_C2895: edgepairs_((48,_49),_(29,_30)) + edgepairs_((49,_50),_(29,_30))
 - nodepairs_(49,_29) - nodepairs_(49,_30) <= 0
_C2896: edgepairs_((48,_49),_(30,_31)) + edgepairs_((49,_50),_(30,_31))
 - nodepairs_(49,_30) - nodepairs_(49,_31) <= 0
_C2897: edgepairs_((48,_49),_(31,_32)) + edgepairs_((49,_50),_(31,_32))
 - nodepairs_(49,_31) - nodepairs_(49,_32) <= 0
_C2898: edgepairs_((48,_49),_(32,_33)) + edgepairs_((49,_50),_(32,_33))
 - nodepairs_(49,_32) - nodepairs_(49,_33) <= 0
_C2899: edgepairs_((48,_49),_(33,_34)) + edgepairs_((49,_50),_(33,_34))
 - nodepairs_(49,_33) - nodepairs_(49,_34) <= 0
_C29: nodepairs_(28,_0) + nodepairs_(28,_1) + nodepairs_(28,_10)
 + nodepairs_(28,_11) + nodepairs_(28,_12) + nodepairs_(28,_13)
 + nodepairs_(28,_14) + nodepairs_(28,_15) + nodepairs_(28,_16)
 + nodepairs_(28,_17) + nodepairs_(28,_19) + nodepairs_(28,_21)
 + nodepairs_(28,_22) + nodepairs_(28,_23) + nodepairs_(28,_24)
 + nodepairs_(28,_25) + nodepairs_(28,_26) + nodepairs_(28,_27)
 + nodepairs_(28,_28) + nodepairs_(28,_29) + nodepairs_(28,_3)
 + nodepairs_(28,_30) + nodepairs_(28,_31) + nodepairs_(28,_32)
 + nodepairs_(28,_33) + nodepairs_(28,_34) + nodepairs_(28,_35)
 + nodepairs_(28,_36) + nodepairs_(28,_37) + nodepairs_(28,_38)
 + nodepairs_(28,_39) + nodepairs_(28,_40) + nodepairs_(28,_42)
 + nodepairs_(28,_44) + nodepairs_(28,_45) + nodepairs_(28,_46)
 + nodepairs_(28,_47) + nodepairs_(28,_48) + nodepairs_(28,_49)
 + nodepairs_(28,_5) + nodepairs_(28,_50) + nodepairs_(28,_51)
 + nodepairs_(28,_52) + nodepairs_(28,_53) + nodepairs_(28,_54)
 + nodepairs_(28,_6) + nodepairs_(28,_7) + nodepairs_(28,_8)
 + nodepairs_(28,_9) <= 1
_C290: edgepairs_((0,_1),_(15,_16)) - nodepairs_(1,_15) - nodepairs_(1,_16)
 <= 0
_C2900: edgepairs_((48,_49),_(34,_35)) + edgepairs_((49,_50),_(34,_35))
 - nodepairs_(49,_34) - nodepairs_(49,_35) <= 0
_C2901: edgepairs_((48,_49),_(35,_36)) + edgepairs_((49,_50),_(35,_36))
 - nodepairs_(49,_35) - nodepairs_(49,_36) <= 0
_C2902: edgepairs_((48,_49),_(36,_37)) + edgepairs_((49,_50),_(36,_37))
 - nodepairs_(49,_36) - nodepairs_(49,_37) <= 0
_C2903: edgepairs_((48,_49),_(37,_38)) + edgepairs_((49,_50),_(37,_38))
 - nodepairs_(49,_37) - nodepairs_(49,_38) <= 0
_C2904: edgepairs_((48,_49),_(37,_39)) + edgepairs_((49,_50),_(37,_39))
 - nodepairs_(49,_37) - nodepairs_(49,_39) <= 0
_C2905: edgepairs_((48,_49),_(39,_40)) + edgepairs_((49,_50),_(39,_40))
 - nodepairs_(49,_39) - nodepairs_(49,_40) <= 0
_C2906: - nodepairs_(49,_42) <= 0
_C2907: - nodepairs_(49,_42) <= 0
_C2908: edgepairs_((48,_49),_(42,_44)) + edgepairs_((49,_50),_(42,_44))
 - nodepairs_(49,_42) - nodepairs_(49,_44) <= 0
_C2909: edgepairs_((48,_49),_(44,_45)) + edgepairs_((49,_50),_(44,_45))
 - nodepairs_(49,_44) - nodepairs_(49,_45) <= 0
_C291: edgepairs_((1,_2),_(17,_18)) - nodepairs_(1,_17) <= 0
_C2910: edgepairs_((48,_49),_(45,_46)) + edgepairs_((49,_50),_(45,_46))
 - nodepairs_(49,_45) - nodepairs_(49,_46) <= 0
_C2911: edgepairs_((48,_49),_(46,_47)) + edgepairs_((49,_50),_(46,_47))
 - nodepairs_(49,_46) - nodepairs_(49,_47) <= 0
_C2912: edgepairs_((48,_49),_(47,_48)) + edgepairs_((49,_50),_(47,_48))
 - nodepairs_(49,_47) - nodepairs_(49,_48) <= 0
_C2913: edgepairs_((48,_49),_(48,_49)) + edgepairs_((49,_50),_(48,_49))
 - nodepairs_(49,_48) - nodepairs_(49,_49) <= 0
_C2914: edgepairs_((48,_49),_(49,_50)) + edgepairs_((49,_50),_(49,_50))
 - nodepairs_(49,_49) - nodepairs_(49,_50) <= 0
_C2915: edgepairs_((48,_49),_(50,_51)) + edgepairs_((49,_50),_(50,_51))
 - nodepairs_(49,_50) - nodepairs_(49,_51) <= 0
_C2916: edgepairs_((48,_49),_(51,_52)) + edgepairs_((49,_50),_(51,_52))
 - nodepairs_(49,_51) - nodepairs_(49,_52) <= 0
_C2917: edgepairs_((48,_49),_(52,_53)) + edgepairs_((49,_50),_(52,_53))
 - nodepairs_(49,_52) - nodepairs_(49,_53) <= 0
_C2918: edgepairs_((48,_49),_(53,_54)) + edgepairs_((49,_50),_(53,_54))
 - nodepairs_(49,_53) - nodepairs_(49,_54) <= 0
_C2919: edgepairs_((49,_50),_(0,_1)) + edgepairs_((50,_51),_(0,_1))
 - nodepairs_(50,_0) - nodepairs_(50,_1) <= 0
_C292: edgepairs_((1,_2),_(18,_19)) - nodepairs_(1,_19) <= 0
_C2920: edgepairs_((49,_50),_(0,_17)) + edgepairs_((50,_51),_(0,_17))
 - nodepairs_(50,_0) - nodepairs_(50,_17) <= 0
_C2921: - nodepairs_(50,_0) <= 0
_C2922: - nodepairs_(50,_1) <= 0
_C2923: - nodepairs_(50,_3) <= 0
_C2924: - nodepairs_(50,_3) <= 0
_C2925: edgepairs_((49,_50),_(3,_5)) + edgepairs_((50,_51),_(3,_5))
 - nodepairs_(50,_3) - nodepairs_(50,_5) <= 0
_C2926: edgepairs_((49,_50),_(5,_6)) + edgepairs_((50,_51),_(5,_6))
 - nodepairs_(50,_5) - nodepairs_(50,_6) <= 0
_C2927: edgepairs_((49,_50),_(6,_7)) + edgepairs_((50,_51),_(6,_7))
 - nodepairs_(50,_6) - nodepairs_(50,_7) <= 0
_C2928: edgepairs_((49,_50),_(7,_8)) + edgepairs_((50,_51),_(7,_8))
 - nodepairs_(50,_7) - nodepairs_(50,_8) <= 0
_C2929: edgepairs_((49,_50),_(8,_9)) + edgepairs_((50,_51),_(8,_9))
 - nodepairs_(50,_8) - nodepairs_(50,_9) <= 0
_C293: edgepairs_((1,_2),_(19,_20)) - nodepairs_(1,_19) <= 0
_C2930: edgepairs_((49,_50),_(9,_10)) + edgepairs_((50,_51),_(9,_10))
 - nodepairs_(50,_10) - nodepairs_(50,_9) <= 0
_C2931: edgepairs_((49,_50),_(10,_11)) + edgepairs_((50,_51),_(10,_11))
 - nodepairs_(50,_10) - nodepairs_(50,_11) <= 0
_C2932: edgepairs_((49,_50),_(11,_12)) + edgepairs_((50,_51),_(11,_12))
 - nodepairs_(50,_11) - nodepairs_(50,_12) <= 0
_C2933: edgepairs_((49,_50),_(12,_13)) + edgepairs_((50,_51),_(12,_13))
 - nodepairs_(50,_12) - nodepairs_(50,_13) <= 0
_C2934: edgepairs_((49,_50),_(13,_14)) + edgepairs_((50,_51),_(13,_14))
 - nodepairs_(50,_13) - nodepairs_(50,_14) <= 0
_C2935: edgepairs_((49,_50),_(14,_15)) + edgepairs_((50,_51),_(14,_15))
 - nodepairs_(50,_14) - nodepairs_(50,_15) <= 0
_C2936: edgepairs_((49,_50),_(15,_16)) + edgepairs_((50,_51),_(15,_16))
 - nodepairs_(50,_15) - nodepairs_(50,_16) <= 0
_C2937: - nodepairs_(50,_17) <= 0
_C2938: - nodepairs_(50,_19) <= 0
_C2939: - nodepairs_(50,_19) <= 0
_C294: edgepairs_((0,_1),_(19,_21)) - nodepairs_(1,_19) - nodepairs_(1,_21)
 <= 0
_C2940: edgepairs_((49,_50),_(19,_21)) + edgepairs_((50,_51),_(19,_21))
 - nodepairs_(50,_19) - nodepairs_(50,_21) <= 0
_C2941: edgepairs_((49,_50),_(21,_22)) + edgepairs_((50,_51),_(21,_22))
 - nodepairs_(50,_21) - nodepairs_(50,_22) <= 0
_C2942: edgepairs_((49,_50),_(22,_23)) + edgepairs_((50,_51),_(22,_23))
 - nodepairs_(50,_22) - nodepairs_(50,_23) <= 0
_C2943: edgepairs_((49,_50),_(23,_24)) + edgepairs_((50,_51),_(23,_24))
 - nodepairs_(50,_23) - nodepairs_(50,_24) <= 0
_C2944: edgepairs_((49,_50),_(24,_25)) + edgepairs_((50,_51),_(24,_25))
 - nodepairs_(50,_24) - nodepairs_(50,_25) <= 0
_C2945: edgepairs_((49,_50),_(25,_26)) + edgepairs_((50,_51),_(25,_26))
 - nodepairs_(50,_25) - nodepairs_(50,_26) <= 0
_C2946: edgepairs_((49,_50),_(26,_27)) + edgepairs_((50,_51),_(26,_27))
 - nodepairs_(50,_26) - nodepairs_(50,_27) <= 0
_C2947: edgepairs_((49,_50),_(27,_28)) + edgepairs_((50,_51),_(27,_28))
 - nodepairs_(50,_27) - nodepairs_(50,_28) <= 0
_C2948: edgepairs_((49,_50),_(28,_29)) + edgepairs_((50,_51),_(28,_29))
 - nodepairs_(50,_28) - nodepairs_(50,_29) <= 0
_C2949: edgepairs_((49,_50),_(29,_30)) + edgepairs_((50,_51),_(29,_30))
 - nodepairs_(50,_29) - nodepairs_(50,_30) <= 0
_C295: edgepairs_((0,_1),_(21,_22)) - nodepairs_(1,_21) - nodepairs_(1,_22)
 <= 0
_C2950: edgepairs_((49,_50),_(30,_31)) + edgepairs_((50,_51),_(30,_31))
 - nodepairs_(50,_30) - nodepairs_(50,_31) <= 0
_C2951: edgepairs_((49,_50),_(31,_32)) + edgepairs_((50,_51),_(31,_32))
 - nodepairs_(50,_31) - nodepairs_(50,_32) <= 0
_C2952: edgepairs_((49,_50),_(32,_33)) + edgepairs_((50,_51),_(32,_33))
 - nodepairs_(50,_32) - nodepairs_(50,_33) <= 0
_C2953: edgepairs_((49,_50),_(33,_34)) + edgepairs_((50,_51),_(33,_34))
 - nodepairs_(50,_33) - nodepairs_(50,_34) <= 0
_C2954: edgepairs_((49,_50),_(34,_35)) + edgepairs_((50,_51),_(34,_35))
 - nodepairs_(50,_34) - nodepairs_(50,_35) <= 0
_C2955: edgepairs_((49,_50),_(35,_36)) + edgepairs_((50,_51),_(35,_36))
 - nodepairs_(50,_35) - nodepairs_(50,_36) <= 0
_C2956: edgepairs_((49,_50),_(36,_37)) + edgepairs_((50,_51),_(36,_37))
 - nodepairs_(50,_36) - nodepairs_(50,_37) <= 0
_C2957: edgepairs_((49,_50),_(37,_38)) + edgepairs_((50,_51),_(37,_38))
 - nodepairs_(50,_37) - nodepairs_(50,_38) <= 0
_C2958: edgepairs_((49,_50),_(37,_39)) + edgepairs_((50,_51),_(37,_39))
 - nodepairs_(50,_37) - nodepairs_(50,_39) <= 0
_C2959: edgepairs_((49,_50),_(39,_40)) + edgepairs_((50,_51),_(39,_40))
 - nodepairs_(50,_39) - nodepairs_(50,_40) <= 0
_C296: edgepairs_((0,_1),_(22,_23)) - nodepairs_(1,_22) - nodepairs_(1,_23)
 <= 0
_C2960: - nodepairs_(50,_42) <= 0
_C2961: - nodepairs_(50,_42) <= 0
_C2962: edgepairs_((49,_50),_(42,_44)) + edgepairs_((50,_51),_(42,_44))
 - nodepairs_(50,_42) - nodepairs_(50,_44) <= 0
_C2963: edgepairs_((49,_50),_(44,_45)) + edgepairs_((50,_51),_(44,_45))
 - nodepairs_(50,_44) - nodepairs_(50,_45) <= 0
_C2964: edgepairs_((49,_50),_(45,_46)) + edgepairs_((50,_51),_(45,_46))
 - nodepairs_(50,_45) - nodepairs_(50,_46) <= 0
_C2965: edgepairs_((49,_50),_(46,_47)) + edgepairs_((50,_51),_(46,_47))
 - nodepairs_(50,_46) - nodepairs_(50,_47) <= 0
_C2966: edgepairs_((49,_50),_(47,_48)) + edgepairs_((50,_51),_(47,_48))
 - nodepairs_(50,_47) - nodepairs_(50,_48) <= 0
_C2967: edgepairs_((49,_50),_(48,_49)) + edgepairs_((50,_51),_(48,_49))
 - nodepairs_(50,_48) - nodepairs_(50,_49) <= 0
_C2968: edgepairs_((49,_50),_(49,_50)) + edgepairs_((50,_51),_(49,_50))
 - nodepairs_(50,_49) - nodepairs_(50,_50) <= 0
_C2969: edgepairs_((49,_50),_(50,_51)) + edgepairs_((50,_51),_(50,_51))
 - nodepairs_(50,_50) - nodepairs_(50,_51) <= 0
_C297: edgepairs_((0,_1),_(23,_24)) - nodepairs_(1,_23) - nodepairs_(1,_24)
 <= 0
_C2970: edgepairs_((49,_50),_(51,_52)) + edgepairs_((50,_51),_(51,_52))
 - nodepairs_(50,_51) - nodepairs_(50,_52) <= 0
_C2971: edgepairs_((49,_50),_(52,_53)) + edgepairs_((50,_51),_(52,_53))
 - nodepairs_(50,_52) - nodepairs_(50,_53) <= 0
_C2972: edgepairs_((49,_50),_(53,_54)) + edgepairs_((50,_51),_(53,_54))
 - nodepairs_(50,_53) - nodepairs_(50,_54) <= 0
_C2973: edgepairs_((50,_51),_(0,_1)) + edgepairs_((51,_52),_(0,_1))
 - nodepairs_(51,_0) - nodepairs_(51,_1) <= 0
_C2974: edgepairs_((50,_51),_(0,_17)) + edgepairs_((51,_52),_(0,_17))
 - nodepairs_(51,_0) - nodepairs_(51,_17) <= 0
_C2975: - nodepairs_(51,_0) <= 0
_C2976: - nodepairs_(51,_1) <= 0
_C2977: - nodepairs_(51,_3) <= 0
_C2978: - nodepairs_(51,_3) <= 0
_C2979: edgepairs_((50,_51),_(3,_5)) + edgepairs_((51,_52),_(3,_5))
 - nodepairs_(51,_3) - nodepairs_(51,_5) <= 0
_C298: edgepairs_((0,_1),_(24,_25)) - nodepairs_(1,_24) - nodepairs_(1,_25)
 <= 0
_C2980: edgepairs_((50,_51),_(5,_6)) + edgepairs_((51,_52),_(5,_6))
 - nodepairs_(51,_5) - nodepairs_(51,_6) <= 0
_C2981: edgepairs_((50,_51),_(6,_7)) + edgepairs_((51,_52),_(6,_7))
 - nodepairs_(51,_6) - nodepairs_(51,_7) <= 0
_C2982: edgepairs_((50,_51),_(7,_8)) + edgepairs_((51,_52),_(7,_8))
 - nodepairs_(51,_7) - nodepairs_(51,_8) <= 0
_C2983: edgepairs_((50,_51),_(8,_9)) + edgepairs_((51,_52),_(8,_9))
 - nodepairs_(51,_8) - nodepairs_(51,_9) <= 0
_C2984: edgepairs_((50,_51),_(9,_10)) + edgepairs_((51,_52),_(9,_10))
 - nodepairs_(51,_10) - nodepairs_(51,_9) <= 0
_C2985: edgepairs_((50,_51),_(10,_11)) + edgepairs_((51,_52),_(10,_11))
 - nodepairs_(51,_10) - nodepairs_(51,_11) <= 0
_C2986: edgepairs_((50,_51),_(11,_12)) + edgepairs_((51,_52),_(11,_12))
 - nodepairs_(51,_11) - nodepairs_(51,_12) <= 0
_C2987: edgepairs_((50,_51),_(12,_13)) + edgepairs_((51,_52),_(12,_13))
 - nodepairs_(51,_12) - nodepairs_(51,_13) <= 0
_C2988: edgepairs_((50,_51),_(13,_14)) + edgepairs_((51,_52),_(13,_14))
 - nodepairs_(51,_13) - nodepairs_(51,_14) <= 0
_C2989: edgepairs_((50,_51),_(14,_15)) + edgepairs_((51,_52),_(14,_15))
 - nodepairs_(51,_14) - nodepairs_(51,_15) <= 0
_C299: edgepairs_((0,_1),_(25,_26)) - nodepairs_(1,_25) - nodepairs_(1,_26)
 <= 0
_C2990: edgepairs_((50,_51),_(15,_16)) + edgepairs_((51,_52),_(15,_16))
 - nodepairs_(51,_15) - nodepairs_(51,_16) <= 0
_C2991: - nodepairs_(51,_17) <= 0
_C2992: - nodepairs_(51,_19) <= 0
_C2993: - nodepairs_(51,_19) <= 0
_C2994: edgepairs_((50,_51),_(19,_21)) + edgepairs_((51,_52),_(19,_21))
 - nodepairs_(51,_19) - nodepairs_(51,_21) <= 0
_C2995: edgepairs_((50,_51),_(21,_22)) + edgepairs_((51,_52),_(21,_22))
 - nodepairs_(51,_21) - nodepairs_(51,_22) <= 0
_C2996: edgepairs_((50,_51),_(22,_23)) + edgepairs_((51,_52),_(22,_23))
 - nodepairs_(51,_22) - nodepairs_(51,_23) <= 0
_C2997: edgepairs_((50,_51),_(23,_24)) + edgepairs_((51,_52),_(23,_24))
 - nodepairs_(51,_23) - nodepairs_(51,_24) <= 0
_C2998: edgepairs_((50,_51),_(24,_25)) + edgepairs_((51,_52),_(24,_25))
 - nodepairs_(51,_24) - nodepairs_(51,_25) <= 0
_C2999: edgepairs_((50,_51),_(25,_26)) + edgepairs_((51,_52),_(25,_26))
 - nodepairs_(51,_25) - nodepairs_(51,_26) <= 0
_C3: nodepairs_(2,_18) + nodepairs_(2,_2) + nodepairs_(2,_20)
 + nodepairs_(2,_4) + nodepairs_(2,_41) + nodepairs_(2,_43) <= 1
_C30: nodepairs_(29,_18) + nodepairs_(29,_2) + nodepairs_(29,_20)
 + nodepairs_(29,_4) + nodepairs_(29,_41) + nodepairs_(29,_43) <= 1
_C300: edgepairs_((0,_1),_(26,_27)) - nodepairs_(1,_26) - nodepairs_(1,_27)
 <= 0
_C3000: edgepairs_((50,_51),_(26,_27)) + edgepairs_((51,_52),_(26,_27))
 - nodepairs_(51,_26) - nodepairs_(51,_27) <= 0
_C3001: edgepairs_((50,_51),_(27,_28)) + edgepairs_((51,_52),_(27,_28))
 - nodepairs_(51,_27) - nodepairs_(51,_28) <= 0
_C3002: edgepairs_((50,_51),_(28,_29)) + edgepairs_((51,_52),_(28,_29))
 - nodepairs_(51,_28) - nodepairs_(51,_29) <= 0
_C3003: edgepairs_((50,_51),_(29,_30)) + edgepairs_((51,_52),_(29,_30))
 - nodepairs_(51,_29) - nodepairs_(51,_30) <= 0
_C3004: edgepairs_((50,_51),_(30,_31)) + edgepairs_((51,_52),_(30,_31))
 - nodepairs_(51,_30) - nodepairs_(51,_31) <= 0
_C3005: edgepairs_((50,_51),_(31,_32)) + edgepairs_((51,_52),_(31,_32))
 - nodepairs_(51,_31) - nodepairs_(51,_32) <= 0
_C3006: edgepairs_((50,_51),_(32,_33)) + edgepairs_((51,_52),_(32,_33))
 - nodepairs_(51,_32) - nodepairs_(51,_33) <= 0
_C3007: edgepairs_((50,_51),_(33,_34)) + edgepairs_((51,_52),_(33,_34))
 - nodepairs_(51,_33) - nodepairs_(51,_34) <= 0
_C3008: edgepairs_((50,_51),_(34,_35)) + edgepairs_((51,_52),_(34,_35))
 - nodepairs_(51,_34) - nodepairs_(51,_35) <= 0
_C3009: edgepairs_((50,_51),_(35,_36)) + edgepairs_((51,_52),_(35,_36))
 - nodepairs_(51,_35) - nodepairs_(51,_36) <= 0
_C301: edgepairs_((0,_1),_(27,_28)) - nodepairs_(1,_27) - nodepairs_(1,_28)
 <= 0
_C3010: edgepairs_((50,_51),_(36,_37)) + edgepairs_((51,_52),_(36,_37))
 - nodepairs_(51,_36) - nodepairs_(51,_37) <= 0
_C3011: edgepairs_((50,_51),_(37,_38)) + edgepairs_((51,_52),_(37,_38))
 - nodepairs_(51,_37) - nodepairs_(51,_38) <= 0
_C3012: edgepairs_((50,_51),_(37,_39)) + edgepairs_((51,_52),_(37,_39))
 - nodepairs_(51,_37) - nodepairs_(51,_39) <= 0
_C3013: edgepairs_((50,_51),_(39,_40)) + edgepairs_((51,_52),_(39,_40))
 - nodepairs_(51,_39) - nodepairs_(51,_40) <= 0
_C3014: - nodepairs_(51,_42) <= 0
_C3015: - nodepairs_(51,_42) <= 0
_C3016: edgepairs_((50,_51),_(42,_44)) + edgepairs_((51,_52),_(42,_44))
 - nodepairs_(51,_42) - nodepairs_(51,_44) <= 0
_C3017: edgepairs_((50,_51),_(44,_45)) + edgepairs_((51,_52),_(44,_45))
 - nodepairs_(51,_44) - nodepairs_(51,_45) <= 0
_C3018: edgepairs_((50,_51),_(45,_46)) + edgepairs_((51,_52),_(45,_46))
 - nodepairs_(51,_45) - nodepairs_(51,_46) <= 0
_C3019: edgepairs_((50,_51),_(46,_47)) + edgepairs_((51,_52),_(46,_47))
 - nodepairs_(51,_46) - nodepairs_(51,_47) <= 0
_C302: edgepairs_((0,_1),_(28,_29)) - nodepairs_(1,_28) - nodepairs_(1,_29)
 <= 0
_C3020: edgepairs_((50,_51),_(47,_48)) + edgepairs_((51,_52),_(47,_48))
 - nodepairs_(51,_47) - nodepairs_(51,_48) <= 0
_C3021: edgepairs_((50,_51),_(48,_49)) + edgepairs_((51,_52),_(48,_49))
 - nodepairs_(51,_48) - nodepairs_(51,_49) <= 0
_C3022: edgepairs_((50,_51),_(49,_50)) + edgepairs_((51,_52),_(49,_50))
 - nodepairs_(51,_49) - nodepairs_(51,_50) <= 0
_C3023: edgepairs_((50,_51),_(50,_51)) + edgepairs_((51,_52),_(50,_51))
 - nodepairs_(51,_50) - nodepairs_(51,_51) <= 0
_C3024: edgepairs_((50,_51),_(51,_52)) + edgepairs_((51,_52),_(51,_52))
 - nodepairs_(51,_51) - nodepairs_(51,_52) <= 0
_C3025: edgepairs_((50,_51),_(52,_53)) + edgepairs_((51,_52),_(52,_53))
 - nodepairs_(51,_52) - nodepairs_(51,_53) <= 0
_C3026: edgepairs_((50,_51),_(53,_54)) + edgepairs_((51,_52),_(53,_54))
 - nodepairs_(51,_53) - nodepairs_(51,_54) <= 0
_C3027: edgepairs_((51,_52),_(0,_1)) + edgepairs_((52,_53),_(0,_1))
 - nodepairs_(52,_0) - nodepairs_(52,_1) <= 0
_C3028: edgepairs_((51,_52),_(0,_17)) + edgepairs_((52,_53),_(0,_17))
 - nodepairs_(52,_0) - nodepairs_(52,_17) <= 0
_C3029: - nodepairs_(52,_0) <= 0
_C303: edgepairs_((0,_1),_(29,_30)) - nodepairs_(1,_29) - nodepairs_(1,_30)
 <= 0
_C3030: - nodepairs_(52,_1) <= 0
_C3031: - nodepairs_(52,_3) <= 0
_C3032: - nodepairs_(52,_3) <= 0
_C3033: edgepairs_((51,_52),_(3,_5)) + edgepairs_((52,_53),_(3,_5))
 - nodepairs_(52,_3) - nodepairs_(52,_5) <= 0
_C3034: edgepairs_((51,_52),_(5,_6)) + edgepairs_((52,_53),_(5,_6))
 - nodepairs_(52,_5) - nodepairs_(52,_6) <= 0
_C3035: edgepairs_((51,_52),_(6,_7)) + edgepairs_((52,_53),_(6,_7))
 - nodepairs_(52,_6) - nodepairs_(52,_7) <= 0
_C3036: edgepairs_((51,_52),_(7,_8)) + edgepairs_((52,_53),_(7,_8))
 - nodepairs_(52,_7) - nodepairs_(52,_8) <= 0
_C3037: edgepairs_((51,_52),_(8,_9)) + edgepairs_((52,_53),_(8,_9))
 - nodepairs_(52,_8) - nodepairs_(52,_9) <= 0
_C3038: edgepairs_((51,_52),_(9,_10)) + edgepairs_((52,_53),_(9,_10))
 - nodepairs_(52,_10) - nodepairs_(52,_9) <= 0
_C3039: edgepairs_((51,_52),_(10,_11)) + edgepairs_((52,_53),_(10,_11))
 - nodepairs_(52,_10) - nodepairs_(52,_11) <= 0
_C304: edgepairs_((0,_1),_(30,_31)) - nodepairs_(1,_30) - nodepairs_(1,_31)
 <= 0
_C3040: edgepairs_((51,_52),_(11,_12)) + edgepairs_((52,_53),_(11,_12))
 - nodepairs_(52,_11) - nodepairs_(52,_12) <= 0
_C3041: edgepairs_((51,_52),_(12,_13)) + edgepairs_((52,_53),_(12,_13))
 - nodepairs_(52,_12) - nodepairs_(52,_13) <= 0
_C3042: edgepairs_((51,_52),_(13,_14)) + edgepairs_((52,_53),_(13,_14))
 - nodepairs_(52,_13) - nodepairs_(52,_14) <= 0
_C3043: edgepairs_((51,_52),_(14,_15)) + edgepairs_((52,_53),_(14,_15))
 - nodepairs_(52,_14) - nodepairs_(52,_15) <= 0
_C3044: edgepairs_((51,_52),_(15,_16)) + edgepairs_((52,_53),_(15,_16))
 - nodepairs_(52,_15) - nodepairs_(52,_16) <= 0
_C3045: - nodepairs_(52,_17) <= 0
_C3046: - nodepairs_(52,_19) <= 0
_C3047: - nodepairs_(52,_19) <= 0
_C3048: edgepairs_((51,_52),_(19,_21)) + edgepairs_((52,_53),_(19,_21))
 - nodepairs_(52,_19) - nodepairs_(52,_21) <= 0
_C3049: edgepairs_((51,_52),_(21,_22)) + edgepairs_((52,_53),_(21,_22))
 - nodepairs_(52,_21) - nodepairs_(52,_22) <= 0
_C305: edgepairs_((0,_1),_(31,_32)) - nodepairs_(1,_31) - nodepairs_(1,_32)
 <= 0
_C3050: edgepairs_((51,_52),_(22,_23)) + edgepairs_((52,_53),_(22,_23))
 - nodepairs_(52,_22) - nodepairs_(52,_23) <= 0
_C3051: edgepairs_((51,_52),_(23,_24)) + edgepairs_((52,_53),_(23,_24))
 - nodepairs_(52,_23) - nodepairs_(52,_24) <= 0
_C3052: edgepairs_((51,_52),_(24,_25)) + edgepairs_((52,_53),_(24,_25))
 - nodepairs_(52,_24) - nodepairs_(52,_25) <= 0
_C3053: edgepairs_((51,_52),_(25,_26)) + edgepairs_((52,_53),_(25,_26))
 - nodepairs_(52,_25) - nodepairs_(52,_26) <= 0
_C3054: edgepairs_((51,_52),_(26,_27)) + edgepairs_((52,_53),_(26,_27))
 - nodepairs_(52,_26) - nodepairs_(52,_27) <= 0
_C3055: edgepairs_((51,_52),_(27,_28)) + edgepairs_((52,_53),_(27,_28))
 - nodepairs_(52,_27) - nodepairs_(52,_28) <= 0
_C3056: edgepairs_((51,_52),_(28,_29)) + edgepairs_((52,_53),_(28,_29))
 - nodepairs_(52,_28) - nodepairs_(52,_29) <= 0
_C3057: edgepairs_((51,_52),_(29,_30)) + edgepairs_((52,_53),_(29,_30))
 - nodepairs_(52,_29) - nodepairs_(52,_30) <= 0
_C3058: edgepairs_((51,_52),_(30,_31)) + edgepairs_((52,_53),_(30,_31))
 - nodepairs_(52,_30) - nodepairs_(52,_31) <= 0
_C3059: edgepairs_((51,_52),_(31,_32)) + edgepairs_((52,_53),_(31,_32))
 - nodepairs_(52,_31) - nodepairs_(52,_32) <= 0
_C306: edgepairs_((0,_1),_(32,_33)) - nodepairs_(1,_32) - nodepairs_(1,_33)
 <= 0
_C3060: edgepairs_((51,_52),_(32,_33)) + edgepairs_((52,_53),_(32,_33))
 - nodepairs_(52,_32) - nodepairs_(52,_33) <= 0
_C3061: edgepairs_((51,_52),_(33,_34)) + edgepairs_((52,_53),_(33,_34))
 - nodepairs_(52,_33) - nodepairs_(52,_34) <= 0
_C3062: edgepairs_((51,_52),_(34,_35)) + edgepairs_((52,_53),_(34,_35))
 - nodepairs_(52,_34) - nodepairs_(52,_35) <= 0
_C3063: edgepairs_((51,_52),_(35,_36)) + edgepairs_((52,_53),_(35,_36))
 - nodepairs_(52,_35) - nodepairs_(52,_36) <= 0
_C3064: edgepairs_((51,_52),_(36,_37)) + edgepairs_((52,_53),_(36,_37))
 - nodepairs_(52,_36) - nodepairs_(52,_37) <= 0
_C3065: edgepairs_((51,_52),_(37,_38)) + edgepairs_((52,_53),_(37,_38))
 - nodepairs_(52,_37) - nodepairs_(52,_38) <= 0
_C3066: edgepairs_((51,_52),_(37,_39)) + edgepairs_((52,_53),_(37,_39))
 - nodepairs_(52,_37) - nodepairs_(52,_39) <= 0
_C3067: edgepairs_((51,_52),_(39,_40)) + edgepairs_((52,_53),_(39,_40))
 - nodepairs_(52,_39) - nodepairs_(52,_40) <= 0
_C3068: - nodepairs_(52,_42) <= 0
_C3069: - nodepairs_(52,_42) <= 0
_C307: edgepairs_((0,_1),_(33,_34)) - nodepairs_(1,_33) - nodepairs_(1,_34)
 <= 0
_C3070: edgepairs_((51,_52),_(42,_44)) + edgepairs_((52,_53),_(42,_44))
 - nodepairs_(52,_42) - nodepairs_(52,_44) <= 0
_C3071: edgepairs_((51,_52),_(44,_45)) + edgepairs_((52,_53),_(44,_45))
 - nodepairs_(52,_44) - nodepairs_(52,_45) <= 0
_C3072: edgepairs_((51,_52),_(45,_46)) + edgepairs_((52,_53),_(45,_46))
 - nodepairs_(52,_45) - nodepairs_(52,_46) <= 0
_C3073: edgepairs_((51,_52),_(46,_47)) + edgepairs_((52,_53),_(46,_47))
 - nodepairs_(52,_46) - nodepairs_(52,_47) <= 0
_C3074: edgepairs_((51,_52),_(47,_48)) + edgepairs_((52,_53),_(47,_48))
 - nodepairs_(52,_47) - nodepairs_(52,_48) <= 0
_C3075: edgepairs_((51,_52),_(48,_49)) + edgepairs_((52,_53),_(48,_49))
 - nodepairs_(52,_48) - nodepairs_(52,_49) <= 0
_C3076: edgepairs_((51,_52),_(49,_50)) + edgepairs_((52,_53),_(49,_50))
 - nodepairs_(52,_49) - nodepairs_(52,_50) <= 0
_C3077: edgepairs_((51,_52),_(50,_51)) + edgepairs_((52,_53),_(50,_51))
 - nodepairs_(52,_50) - nodepairs_(52,_51) <= 0
_C3078: edgepairs_((51,_52),_(51,_52)) + edgepairs_((52,_53),_(51,_52))
 - nodepairs_(52,_51) - nodepairs_(52,_52) <= 0
_C3079: edgepairs_((51,_52),_(52,_53)) + edgepairs_((52,_53),_(52,_53))
 - nodepairs_(52,_52) - nodepairs_(52,_53) <= 0
_C308: edgepairs_((0,_1),_(34,_35)) - nodepairs_(1,_34) - nodepairs_(1,_35)
 <= 0
_C3080: edgepairs_((51,_52),_(53,_54)) + edgepairs_((52,_53),_(53,_54))
 - nodepairs_(52,_53) - nodepairs_(52,_54) <= 0
_C3081: edgepairs_((52,_53),_(0,_1)) + edgepairs_((53,_54),_(0,_1))
 - nodepairs_(53,_0) - nodepairs_(53,_1) <= 0
_C3082: edgepairs_((52,_53),_(0,_17)) + edgepairs_((53,_54),_(0,_17))
 - nodepairs_(53,_0) - nodepairs_(53,_17) <= 0
_C3083: - nodepairs_(53,_0) <= 0
_C3084: - nodepairs_(53,_1) <= 0
_C3085: - nodepairs_(53,_3) <= 0
_C3086: - nodepairs_(53,_3) <= 0
_C3087: edgepairs_((52,_53),_(3,_5)) + edgepairs_((53,_54),_(3,_5))
 - nodepairs_(53,_3) - nodepairs_(53,_5) <= 0
_C3088: edgepairs_((52,_53),_(5,_6)) + edgepairs_((53,_54),_(5,_6))
 - nodepairs_(53,_5) - nodepairs_(53,_6) <= 0
_C3089: edgepairs_((52,_53),_(6,_7)) + edgepairs_((53,_54),_(6,_7))
 - nodepairs_(53,_6) - nodepairs_(53,_7) <= 0
_C309: edgepairs_((0,_1),_(35,_36)) - nodepairs_(1,_35) - nodepairs_(1,_36)
 <= 0
_C3090: edgepairs_((52,_53),_(7,_8)) + edgepairs_((53,_54),_(7,_8))
 - nodepairs_(53,_7) - nodepairs_(53,_8) <= 0
_C3091: edgepairs_((52,_53),_(8,_9)) + edgepairs_((53,_54),_(8,_9))
 - nodepairs_(53,_8) - nodepairs_(53,_9) <= 0
_C3092: edgepairs_((52,_53),_(9,_10)) + edgepairs_((53,_54),_(9,_10))
 - nodepairs_(53,_10) - nodepairs_(53,_9) <= 0
_C3093: edgepairs_((52,_53),_(10,_11)) + edgepairs_((53,_54),_(10,_11))
 - nodepairs_(53,_10) - nodepairs_(53,_11) <= 0
_C3094: edgepairs_((52,_53),_(11,_12)) + edgepairs_((53,_54),_(11,_12))
 - nodepairs_(53,_11) - nodepairs_(53,_12) <= 0
_C3095: edgepairs_((52,_53),_(12,_13)) + edgepairs_((53,_54),_(12,_13))
 - nodepairs_(53,_12) - nodepairs_(53,_13) <= 0
_C3096: edgepairs_((52,_53),_(13,_14)) + edgepairs_((53,_54),_(13,_14))
 - nodepairs_(53,_13) - nodepairs_(53,_14) <= 0
_C3097: edgepairs_((52,_53),_(14,_15)) + edgepairs_((53,_54),_(14,_15))
 - nodepairs_(53,_14) - nodepairs_(53,_15) <= 0
_C3098: edgepairs_((52,_53),_(15,_16)) + edgepairs_((53,_54),_(15,_16))
 - nodepairs_(53,_15) - nodepairs_(53,_16) <= 0
_C3099: - nodepairs_(53,_17) <= 0
_C31: nodepairs_(30,_0) + nodepairs_(30,_1) + nodepairs_(30,_10)
 + nodepairs_(30,_11) + nodepairs_(30,_12) + nodepairs_(30,_13)
 + nodepairs_(30,_14) + nodepairs_(30,_15) + nodepairs_(30,_16)
 + nodepairs_(30,_17) + nodepairs_(30,_19) + nodepairs_(30,_21)
 + nodepairs_(30,_22) + nodepairs_(30,_23) + nodepairs_(30,_24)
 + nodepairs_(30,_25) + nodepairs_(30,_26) + nodepairs_(30,_27)
 + nodepairs_(30,_28) + nodepairs_(30,_29) + nodepairs_(30,_3)
 + nodepairs_(30,_30) + nodepairs_(30,_31) + nodepairs_(30,_32)
 + nodepairs_(30,_33) + nodepairs_(30,_34) + nodepairs_(30,_35)
 + nodepairs_(30,_36) + nodepairs_(30,_37) + nodepairs_(30,_38)
 + nodepairs_(30,_39) + nodepairs_(30,_40) + nodepairs_(30,_42)
 + nodepairs_(30,_44) + nodepairs_(30,_45) + nodepairs_(30,_46)
 + nodepairs_(30,_47) + nodepairs_(30,_48) + nodepairs_(30,_49)
 + nodepairs_(30,_5) + nodepairs_(30,_50) + nodepairs_(30,_51)
 + nodepairs_(30,_52) + nodepairs_(30,_53) + nodepairs_(30,_54)
 + nodepairs_(30,_6) + nodepairs_(30,_7) + nodepairs_(30,_8)
 + nodepairs_(30,_9) <= 1
_C310: edgepairs_((0,_1),_(36,_37)) - nodepairs_(1,_36) - nodepairs_(1,_37)
 <= 0
_C3100: - nodepairs_(53,_19) <= 0
_C3101: - nodepairs_(53,_19) <= 0
_C3102: edgepairs_((52,_53),_(19,_21)) + edgepairs_((53,_54),_(19,_21))
 - nodepairs_(53,_19) - nodepairs_(53,_21) <= 0
_C3103: edgepairs_((52,_53),_(21,_22)) + edgepairs_((53,_54),_(21,_22))
 - nodepairs_(53,_21) - nodepairs_(53,_22) <= 0
_C3104: edgepairs_((52,_53),_(22,_23)) + edgepairs_((53,_54),_(22,_23))
 - nodepairs_(53,_22) - nodepairs_(53,_23) <= 0
_C3105: edgepairs_((52,_53),_(23,_24)) + edgepairs_((53,_54),_(23,_24))
 - nodepairs_(53,_23) - nodepairs_(53,_24) <= 0
_C3106: edgepairs_((52,_53),_(24,_25)) + edgepairs_((53,_54),_(24,_25))
 - nodepairs_(53,_24) - nodepairs_(53,_25) <= 0
_C3107: edgepairs_((52,_53),_(25,_26)) + edgepairs_((53,_54),_(25,_26))
 - nodepairs_(53,_25) - nodepairs_(53,_26) <= 0
_C3108: edgepairs_((52,_53),_(26,_27)) + edgepairs_((53,_54),_(26,_27))
 - nodepairs_(53,_26) - nodepairs_(53,_27) <= 0
_C3109: edgepairs_((52,_53),_(27,_28)) + edgepairs_((53,_54),_(27,_28))
 - nodepairs_(53,_27) - nodepairs_(53,_28) <= 0
_C311: edgepairs_((0,_1),_(37,_38)) - nodepairs_(1,_37) - nodepairs_(1,_38)
 <= 0
_C3110: edgepairs_((52,_53),_(28,_29)) + edgepairs_((53,_54),_(28,_29))
 - nodepairs_(53,_28) - nodepairs_(53,_29) <= 0
_C3111: edgepairs_((52,_53),_(29,_30)) + edgepairs_((53,_54),_(29,_30))
 - nodepairs_(53,_29) - nodepairs_(53,_30) <= 0
_C3112: edgepairs_((52,_53),_(30,_31)) + edgepairs_((53,_54),_(30,_31))
 - nodepairs_(53,_30) - nodepairs_(53,_31) <= 0
_C3113: edgepairs_((52,_53),_(31,_32)) + edgepairs_((53,_54),_(31,_32))
 - nodepairs_(53,_31) - nodepairs_(53,_32) <= 0
_C3114: edgepairs_((52,_53),_(32,_33)) + edgepairs_((53,_54),_(32,_33))
 - nodepairs_(53,_32) - nodepairs_(53,_33) <= 0
_C3115: edgepairs_((52,_53),_(33,_34)) + edgepairs_((53,_54),_(33,_34))
 - nodepairs_(53,_33) - nodepairs_(53,_34) <= 0
_C3116: edgepairs_((52,_53),_(34,_35)) + edgepairs_((53,_54),_(34,_35))
 - nodepairs_(53,_34) - nodepairs_(53,_35) <= 0
_C3117: edgepairs_((52,_53),_(35,_36)) + edgepairs_((53,_54),_(35,_36))
 - nodepairs_(53,_35) - nodepairs_(53,_36) <= 0
_C3118: edgepairs_((52,_53),_(36,_37)) + edgepairs_((53,_54),_(36,_37))
 - nodepairs_(53,_36) - nodepairs_(53,_37) <= 0
_C3119: edgepairs_((52,_53),_(37,_38)) + edgepairs_((53,_54),_(37,_38))
 - nodepairs_(53,_37) - nodepairs_(53,_38) <= 0
_C312: edgepairs_((0,_1),_(37,_39)) - nodepairs_(1,_37) - nodepairs_(1,_39)
 <= 0
_C3120: edgepairs_((52,_53),_(37,_39)) + edgepairs_((53,_54),_(37,_39))
 - nodepairs_(53,_37) - nodepairs_(53,_39) <= 0
_C3121: edgepairs_((52,_53),_(39,_40)) + edgepairs_((53,_54),_(39,_40))
 - nodepairs_(53,_39) - nodepairs_(53,_40) <= 0
_C3122: - nodepairs_(53,_42) <= 0
_C3123: - nodepairs_(53,_42) <= 0
_C3124: edgepairs_((52,_53),_(42,_44)) + edgepairs_((53,_54),_(42,_44))
 - nodepairs_(53,_42) - nodepairs_(53,_44) <= 0
_C3125: edgepairs_((52,_53),_(44,_45)) + edgepairs_((53,_54),_(44,_45))
 - nodepairs_(53,_44) - nodepairs_(53,_45) <= 0
_C3126: edgepairs_((52,_53),_(45,_46)) + edgepairs_((53,_54),_(45,_46))
 - nodepairs_(53,_45) - nodepairs_(53,_46) <= 0
_C3127: edgepairs_((52,_53),_(46,_47)) + edgepairs_((53,_54),_(46,_47))
 - nodepairs_(53,_46) - nodepairs_(53,_47) <= 0
_C3128: edgepairs_((52,_53),_(47,_48)) + edgepairs_((53,_54),_(47,_48))
 - nodepairs_(53,_47) - nodepairs_(53,_48) <= 0
_C3129: edgepairs_((52,_53),_(48,_49)) + edgepairs_((53,_54),_(48,_49))
 - nodepairs_(53,_48) - nodepairs_(53,_49) <= 0
_C313: edgepairs_((0,_1),_(39,_40)) - nodepairs_(1,_39) - nodepairs_(1,_40)
 <= 0
_C3130: edgepairs_((52,_53),_(49,_50)) + edgepairs_((53,_54),_(49,_50))
 - nodepairs_(53,_49) - nodepairs_(53,_50) <= 0
_C3131: edgepairs_((52,_53),_(50,_51)) + edgepairs_((53,_54),_(50,_51))
 - nodepairs_(53,_50) - nodepairs_(53,_51) <= 0
_C3132: edgepairs_((52,_53),_(51,_52)) + edgepairs_((53,_54),_(51,_52))
 - nodepairs_(53,_51) - nodepairs_(53,_52) <= 0
_C3133: edgepairs_((52,_53),_(52,_53)) + edgepairs_((53,_54),_(52,_53))
 - nodepairs_(53,_52) - nodepairs_(53,_53) <= 0
_C3134: edgepairs_((52,_53),_(53,_54)) + edgepairs_((53,_54),_(53,_54))
 - nodepairs_(53,_53) - nodepairs_(53,_54) <= 0
_C3135: edgepairs_((53,_54),_(0,_1)) - nodepairs_(54,_0) - nodepairs_(54,_1)
 <= 0
_C3136: edgepairs_((53,_54),_(0,_17)) - nodepairs_(54,_0) - nodepairs_(54,_17)
 <= 0
_C3137: - nodepairs_(54,_0) <= 0
_C3138: - nodepairs_(54,_1) <= 0
_C3139: - nodepairs_(54,_3) <= 0
_C314: edgepairs_((1,_2),_(41,_42)) - nodepairs_(1,_42) <= 0
_C3140: - nodepairs_(54,_3) <= 0
_C3141: edgepairs_((53,_54),_(3,_5)) - nodepairs_(54,_3) - nodepairs_(54,_5)
 <= 0
_C3142: edgepairs_((53,_54),_(5,_6)) - nodepairs_(54,_5) - nodepairs_(54,_6)
 <= 0
_C3143: edgepairs_((53,_54),_(6,_7)) - nodepairs_(54,_6) - nodepairs_(54,_7)
 <= 0
_C3144: edgepairs_((53,_54),_(7,_8)) - nodepairs_(54,_7) - nodepairs_(54,_8)
 <= 0
_C3145: edgepairs_((53,_54),_(8,_9)) - nodepairs_(54,_8) - nodepairs_(54,_9)
 <= 0
_C3146: edgepairs_((53,_54),_(9,_10)) - nodepairs_(54,_10) - nodepairs_(54,_9)
 <= 0
_C3147: edgepairs_((53,_54),_(10,_11)) - nodepairs_(54,_10)
 - nodepairs_(54,_11) <= 0
_C3148: edgepairs_((53,_54),_(11,_12)) - nodepairs_(54,_11)
 - nodepairs_(54,_12) <= 0
_C3149: edgepairs_((53,_54),_(12,_13)) - nodepairs_(54,_12)
 - nodepairs_(54,_13) <= 0
_C315: edgepairs_((1,_2),_(42,_43)) - nodepairs_(1,_42) <= 0
_C3150: edgepairs_((53,_54),_(13,_14)) - nodepairs_(54,_13)
 - nodepairs_(54,_14) <= 0
_C3151: edgepairs_((53,_54),_(14,_15)) - nodepairs_(54,_14)
 - nodepairs_(54,_15) <= 0
_C3152: edgepairs_((53,_54),_(15,_16)) - nodepairs_(54,_15)
 - nodepairs_(54,_16) <= 0
_C3153: - nodepairs_(54,_17) <= 0
_C3154: - nodepairs_(54,_19) <= 0
_C3155: - nodepairs_(54,_19) <= 0
_C3156: edgepairs_((53,_54),_(19,_21)) - nodepairs_(54,_19)
 - nodepairs_(54,_21) <= 0
_C3157: edgepairs_((53,_54),_(21,_22)) - nodepairs_(54,_21)
 - nodepairs_(54,_22) <= 0
_C3158: edgepairs_((53,_54),_(22,_23)) - nodepairs_(54,_22)
 - nodepairs_(54,_23) <= 0
_C3159: edgepairs_((53,_54),_(23,_24)) - nodepairs_(54,_23)
 - nodepairs_(54,_24) <= 0
_C316: edgepairs_((0,_1),_(42,_44)) - nodepairs_(1,_42) - nodepairs_(1,_44)
 <= 0
_C3160: edgepairs_((53,_54),_(24,_25)) - nodepairs_(54,_24)
 - nodepairs_(54,_25) <= 0
_C3161: edgepairs_((53,_54),_(25,_26)) - nodepairs_(54,_25)
 - nodepairs_(54,_26) <= 0
_C3162: edgepairs_((53,_54),_(26,_27)) - nodepairs_(54,_26)
 - nodepairs_(54,_27) <= 0
_C3163: edgepairs_((53,_54),_(27,_28)) - nodepairs_(54,_27)
 - nodepairs_(54,_28) <= 0
_C3164: edgepairs_((53,_54),_(28,_29)) - nodepairs_(54,_28)
 - nodepairs_(54,_29) <= 0
_C3165: edgepairs_((53,_54),_(29,_30)) - nodepairs_(54,_29)
 - nodepairs_(54,_30) <= 0
_C3166: edgepairs_((53,_54),_(30,_31)) - nodepairs_(54,_30)
 - nodepairs_(54,_31) <= 0
_C3167: edgepairs_((53,_54),_(31,_32)) - nodepairs_(54,_31)
 - nodepairs_(54,_32) <= 0
_C3168: edgepairs_((53,_54),_(32,_33)) - nodepairs_(54,_32)
 - nodepairs_(54,_33) <= 0
_C3169: edgepairs_((53,_54),_(33,_34)) - nodepairs_(54,_33)
 - nodepairs_(54,_34) <= 0
_C317: edgepairs_((0,_1),_(44,_45)) - nodepairs_(1,_44) - nodepairs_(1,_45)
 <= 0
_C3170: edgepairs_((53,_54),_(34,_35)) - nodepairs_(54,_34)
 - nodepairs_(54,_35) <= 0
_C3171: edgepairs_((53,_54),_(35,_36)) - nodepairs_(54,_35)
 - nodepairs_(54,_36) <= 0
_C3172: edgepairs_((53,_54),_(36,_37)) - nodepairs_(54,_36)
 - nodepairs_(54,_37) <= 0
_C3173: edgepairs_((53,_54),_(37,_38)) - nodepairs_(54,_37)
 - nodepairs_(54,_38) <= 0
_C3174: edgepairs_((53,_54),_(37,_39)) - nodepairs_(54,_37)
 - nodepairs_(54,_39) <= 0
_C3175: edgepairs_((53,_54),_(39,_40)) - nodepairs_(54,_39)
 - nodepairs_(54,_40) <= 0
_C3176: - nodepairs_(54,_42) <= 0
_C3177: - nodepairs_(54,_42) <= 0
_C3178: edgepairs_((53,_54),_(42,_44)) - nodepairs_(54,_42)
 - nodepairs_(54,_44) <= 0
_C3179: edgepairs_((53,_54),_(44,_45)) - nodepairs_(54,_44)
 - nodepairs_(54,_45) <= 0
_C318: edgepairs_((0,_1),_(45,_46)) - nodepairs_(1,_45) - nodepairs_(1,_46)
 <= 0
_C3180: edgepairs_((53,_54),_(45,_46)) - nodepairs_(54,_45)
 - nodepairs_(54,_46) <= 0
_C3181: edgepairs_((53,_54),_(46,_47)) - nodepairs_(54,_46)
 - nodepairs_(54,_47) <= 0
_C3182: edgepairs_((53,_54),_(47,_48)) - nodepairs_(54,_47)
 - nodepairs_(54,_48) <= 0
_C3183: edgepairs_((53,_54),_(48,_49)) - nodepairs_(54,_48)
 - nodepairs_(54,_49) <= 0
_C3184: edgepairs_((53,_54),_(49,_50)) - nodepairs_(54,_49)
 - nodepairs_(54,_50) <= 0
_C3185: edgepairs_((53,_54),_(50,_51)) - nodepairs_(54,_50)
 - nodepairs_(54,_51) <= 0
_C3186: edgepairs_((53,_54),_(51,_52)) - nodepairs_(54,_51)
 - nodepairs_(54,_52) <= 0
_C3187: edgepairs_((53,_54),_(52,_53)) - nodepairs_(54,_52)
 - nodepairs_(54,_53) <= 0
_C3188: edgepairs_((53,_54),_(53,_54)) - nodepairs_(54,_53)
 - nodepairs_(54,_54) <= 0
_C3189: edgepairs_((0,_1),_(0,_1)) + edgepairs_((0,_1),_(0,_17))
 - nodepairs_(0,_0) - nodepairs_(1,_0) <= 0
_C319: edgepairs_((0,_1),_(46,_47)) - nodepairs_(1,_46) - nodepairs_(1,_47)
 <= 0
_C3190: edgepairs_((0,_26),_(0,_1)) + edgepairs_((0,_26),_(0,_17))
 - nodepairs_(0,_0) - nodepairs_(26,_0) <= 0
_C3191: edgepairs_((0,_43),_(0,_41)) - nodepairs_(0,_0) <= 0
_C3192: edgepairs_((1,_2),_(0,_41)) - nodepairs_(1,_0) <= 0
_C3193: edgepairs_((2,_3),_(0,_41)) - nodepairs_(3,_0) <= 0
_C3194: edgepairs_((3,_4),_(0,_41)) - nodepairs_(3,_0) <= 0
_C3195: edgepairs_((3,_5),_(0,_1)) + edgepairs_((3,_5),_(0,_17))
 - nodepairs_(3,_0) - nodepairs_(5,_0) <= 0
_C3196: edgepairs_((5,_6),_(0,_1)) + edgepairs_((5,_6),_(0,_17))
 - nodepairs_(5,_0) - nodepairs_(6,_0) <= 0
_C3197: edgepairs_((6,_7),_(0,_1)) + edgepairs_((6,_7),_(0,_17))
 - nodepairs_(6,_0) - nodepairs_(7,_0) <= 0
_C3198: edgepairs_((7,_8),_(0,_1)) + edgepairs_((7,_8),_(0,_17))
 - nodepairs_(7,_0) - nodepairs_(8,_0) <= 0
_C3199: edgepairs_((8,_9),_(0,_1)) + edgepairs_((8,_9),_(0,_17))
 - nodepairs_(8,_0) - nodepairs_(9,_0) <= 0
_C32: nodepairs_(31,_0) + nodepairs_(31,_1) + nodepairs_(31,_10)
 + nodepairs_(31,_11) + nodepairs_(31,_12) + nodepairs_(31,_13)
 + nodepairs_(31,_14) + nodepairs_(31,_15) + nodepairs_(31,_16)
 + nodepairs_(31,_17) + nodepairs_(31,_19) + nodepairs_(31,_21)
 + nodepairs_(31,_22) + nodepairs_(31,_23) + nodepairs_(31,_24)
 + nodepairs_(31,_25) + nodepairs_(31,_26) + nodepairs_(31,_27)
 + nodepairs_(31,_28) + nodepairs_(31,_29) + nodepairs_(31,_3)
 + nodepairs_(31,_30) + nodepairs_(31,_31) + nodepairs_(31,_32)
 + nodepairs_(31,_33) + nodepairs_(31,_34) + nodepairs_(31,_35)
 + nodepairs_(31,_36) + nodepairs_(31,_37) + nodepairs_(31,_38)
 + nodepairs_(31,_39) + nodepairs_(31,_40) + nodepairs_(31,_42)
 + nodepairs_(31,_44) + nodepairs_(31,_45) + nodepairs_(31,_46)
 + nodepairs_(31,_47) + nodepairs_(31,_48) + nodepairs_(31,_49)
 + nodepairs_(31,_5) + nodepairs_(31,_50) + nodepairs_(31,_51)
 + nodepairs_(31,_52) + nodepairs_(31,_53) + nodepairs_(31,_54)
 + nodepairs_(31,_6) + nodepairs_(31,_7) + nodepairs_(31,_8)
 + nodepairs_(31,_9) <= 1
_C320: edgepairs_((0,_1),_(47,_48)) - nodepairs_(1,_47) - nodepairs_(1,_48)
 <= 0
_C3200: edgepairs_((9,_10),_(0,_1)) + edgepairs_((9,_10),_(0,_17))
 - nodepairs_(10,_0) - nodepairs_(9,_0) <= 0
_C3201: edgepairs_((10,_11),_(0,_1)) + edgepairs_((10,_11),_(0,_17))
 - nodepairs_(10,_0) - nodepairs_(11,_0) <= 0
_C3202: edgepairs_((11,_12),_(0,_1)) + edgepairs_((11,_12),_(0,_17))
 - nodepairs_(11,_0) - nodepairs_(12,_0) <= 0
_C3203: edgepairs_((12,_13),_(0,_1)) + edgepairs_((12,_13),_(0,_17))
 - nodepairs_(12,_0) - nodepairs_(13,_0) <= 0
_C3204: edgepairs_((13,_14),_(0,_1)) + edgepairs_((13,_14),_(0,_17))
 - nodepairs_(13,_0) - nodepairs_(14,_0) <= 0
_C3205: edgepairs_((14,_15),_(0,_1)) + edgepairs_((14,_15),_(0,_17))
 - nodepairs_(14,_0) - nodepairs_(15,_0) <= 0
_C3206: edgepairs_((15,_16),_(0,_1)) + edgepairs_((15,_16),_(0,_17))
 - nodepairs_(15,_0) - nodepairs_(16,_0) <= 0
_C3207: edgepairs_((16,_17),_(0,_1)) + edgepairs_((16,_17),_(0,_17))
 - nodepairs_(16,_0) - nodepairs_(17,_0) <= 0
_C3208: edgepairs_((17,_18),_(0,_1)) + edgepairs_((17,_18),_(0,_17))
 - nodepairs_(17,_0) - nodepairs_(18,_0) <= 0
_C3209: edgepairs_((18,_19),_(0,_1)) + edgepairs_((18,_19),_(0,_17))
 - nodepairs_(18,_0) - nodepairs_(19,_0) <= 0
_C321: edgepairs_((0,_1),_(48,_49)) - nodepairs_(1,_48) - nodepairs_(1,_49)
 <= 0
_C3210: edgepairs_((19,_20),_(0,_1)) + edgepairs_((19,_20),_(0,_17))
 - nodepairs_(19,_0) - nodepairs_(20,_0) <= 0
_C3211: edgepairs_((20,_21),_(0,_1)) + edgepairs_((20,_21),_(0,_17))
 - nodepairs_(20,_0) - nodepairs_(21,_0) <= 0
_C3212: edgepairs_((21,_22),_(0,_1)) + edgepairs_((21,_22),_(0,_17))
 - nodepairs_(21,_0) - nodepairs_(22,_0) <= 0
_C3213: edgepairs_((22,_23),_(0,_1)) + edgepairs_((22,_23),_(0,_17))
 - nodepairs_(22,_0) - nodepairs_(23,_0) <= 0
_C3214: edgepairs_((23,_24),_(0,_1)) + edgepairs_((23,_24),_(0,_17))
 - nodepairs_(23,_0) - nodepairs_(24,_0) <= 0
_C3215: edgepairs_((23,_25),_(0,_1)) + edgepairs_((23,_25),_(0,_17))
 - nodepairs_(23,_0) - nodepairs_(25,_0) <= 0
_C3216: edgepairs_((26,_27),_(0,_41)) - nodepairs_(26,_0) <= 0
_C3217: edgepairs_((27,_28),_(0,_41)) - nodepairs_(28,_0) <= 0
_C3218: edgepairs_((28,_29),_(0,_41)) - nodepairs_(28,_0) <= 0
_C3219: edgepairs_((28,_30),_(0,_1)) + edgepairs_((28,_30),_(0,_17))
 - nodepairs_(28,_0) - nodepairs_(30,_0) <= 0
_C322: edgepairs_((0,_1),_(49,_50)) - nodepairs_(1,_49) - nodepairs_(1,_50)
 <= 0
_C3220: edgepairs_((30,_31),_(0,_1)) + edgepairs_((30,_31),_(0,_17))
 - nodepairs_(30,_0) - nodepairs_(31,_0) <= 0
_C3221: edgepairs_((31,_32),_(0,_1)) + edgepairs_((31,_32),_(0,_17))
 - nodepairs_(31,_0) - nodepairs_(32,_0) <= 0
_C3222: edgepairs_((32,_33),_(0,_1)) + edgepairs_((32,_33),_(0,_17))
 - nodepairs_(32,_0) - nodepairs_(33,_0) <= 0
_C3223: edgepairs_((33,_34),_(0,_1)) + edgepairs_((33,_34),_(0,_17))
 - nodepairs_(33,_0) - nodepairs_(34,_0) <= 0
_C3224: edgepairs_((34,_35),_(0,_1)) + edgepairs_((34,_35),_(0,_17))
 - nodepairs_(34,_0) - nodepairs_(35,_0) <= 0
_C3225: edgepairs_((35,_36),_(0,_1)) + edgepairs_((35,_36),_(0,_17))
 - nodepairs_(35,_0) - nodepairs_(36,_0) <= 0
_C3226: edgepairs_((36,_37),_(0,_1)) + edgepairs_((36,_37),_(0,_17))
 - nodepairs_(36,_0) - nodepairs_(37,_0) <= 0
_C3227: edgepairs_((37,_38),_(0,_1)) + edgepairs_((37,_38),_(0,_17))
 - nodepairs_(37,_0) - nodepairs_(38,_0) <= 0
_C3228: edgepairs_((38,_39),_(0,_1)) + edgepairs_((38,_39),_(0,_17))
 - nodepairs_(38,_0) - nodepairs_(39,_0) <= 0
_C3229: edgepairs_((39,_40),_(0,_1)) + edgepairs_((39,_40),_(0,_17))
 - nodepairs_(39,_0) - nodepairs_(40,_0) <= 0
_C323: edgepairs_((0,_1),_(50,_51)) - nodepairs_(1,_50) - nodepairs_(1,_51)
 <= 0
_C3230: edgepairs_((40,_41),_(0,_1)) + edgepairs_((40,_41),_(0,_17))
 - nodepairs_(40,_0) - nodepairs_(41,_0) <= 0
_C3231: edgepairs_((40,_42),_(0,_1)) + edgepairs_((40,_42),_(0,_17))
 - nodepairs_(40,_0) - nodepairs_(42,_0) <= 0
_C3232: edgepairs_((43,_44),_(0,_41)) - nodepairs_(44,_0) <= 0
_C3233: edgepairs_((44,_45),_(0,_41)) - nodepairs_(44,_0) <= 0
_C3234: edgepairs_((44,_46),_(0,_1)) + edgepairs_((44,_46),_(0,_17))
 - nodepairs_(44,_0) - nodepairs_(46,_0) <= 0
_C3235: edgepairs_((46,_47),_(0,_1)) + edgepairs_((46,_47),_(0,_17))
 - nodepairs_(46,_0) - nodepairs_(47,_0) <= 0
_C3236: edgepairs_((47,_48),_(0,_1)) + edgepairs_((47,_48),_(0,_17))
 - nodepairs_(47,_0) - nodepairs_(48,_0) <= 0
_C3237: edgepairs_((48,_49),_(0,_1)) + edgepairs_((48,_49),_(0,_17))
 - nodepairs_(48,_0) - nodepairs_(49,_0) <= 0
_C3238: edgepairs_((49,_50),_(0,_1)) + edgepairs_((49,_50),_(0,_17))
 - nodepairs_(49,_0) - nodepairs_(50,_0) <= 0
_C3239: edgepairs_((50,_51),_(0,_1)) + edgepairs_((50,_51),_(0,_17))
 - nodepairs_(50,_0) - nodepairs_(51,_0) <= 0
_C324: edgepairs_((0,_1),_(51,_52)) - nodepairs_(1,_51) - nodepairs_(1,_52)
 <= 0
_C3240: edgepairs_((51,_52),_(0,_1)) + edgepairs_((51,_52),_(0,_17))
 - nodepairs_(51,_0) - nodepairs_(52,_0) <= 0
_C3241: edgepairs_((52,_53),_(0,_1)) + edgepairs_((52,_53),_(0,_17))
 - nodepairs_(52,_0) - nodepairs_(53,_0) <= 0
_C3242: edgepairs_((53,_54),_(0,_1)) + edgepairs_((53,_54),_(0,_17))
 - nodepairs_(53,_0) - nodepairs_(54,_0) <= 0
_C3243: edgepairs_((0,_1),_(0,_1)) - nodepairs_(0,_1) - nodepairs_(1,_1) <= 0
_C3244: edgepairs_((0,_26),_(0,_1)) - nodepairs_(0,_1) - nodepairs_(26,_1)
 <= 0
_C3245: edgepairs_((0,_43),_(1,_2)) - nodepairs_(0,_1) <= 0
_C3246: edgepairs_((1,_2),_(1,_2)) - nodepairs_(1,_1) <= 0
_C3247: edgepairs_((2,_3),_(1,_2)) - nodepairs_(3,_1) <= 0
_C3248: edgepairs_((3,_4),_(1,_2)) - nodepairs_(3,_1) <= 0
_C3249: edgepairs_((3,_5),_(0,_1)) - nodepairs_(3,_1) - nodepairs_(5,_1) <= 0
_C325: edgepairs_((0,_1),_(52,_53)) - nodepairs_(1,_52) - nodepairs_(1,_53)
 <= 0
_C3250: edgepairs_((5,_6),_(0,_1)) - nodepairs_(5,_1) - nodepairs_(6,_1) <= 0
_C3251: edgepairs_((6,_7),_(0,_1)) - nodepairs_(6,_1) - nodepairs_(7,_1) <= 0
_C3252: edgepairs_((7,_8),_(0,_1)) - nodepairs_(7,_1) - nodepairs_(8,_1) <= 0
_C3253: edgepairs_((8,_9),_(0,_1)) - nodepairs_(8,_1) - nodepairs_(9,_1) <= 0
_C3254: edgepairs_((9,_10),_(0,_1)) - nodepairs_(10,_1) - nodepairs_(9,_1)
 <= 0
_C3255: edgepairs_((10,_11),_(0,_1)) - nodepairs_(10,_1) - nodepairs_(11,_1)
 <= 0
_C3256: edgepairs_((11,_12),_(0,_1)) - nodepairs_(11,_1) - nodepairs_(12,_1)
 <= 0
_C3257: edgepairs_((12,_13),_(0,_1)) - nodepairs_(12,_1) - nodepairs_(13,_1)
 <= 0
_C3258: edgepairs_((13,_14),_(0,_1)) - nodepairs_(13,_1) - nodepairs_(14,_1)
 <= 0
_C3259: edgepairs_((14,_15),_(0,_1)) - nodepairs_(14,_1) - nodepairs_(15,_1)
 <= 0
_C326: edgepairs_((0,_1),_(53,_54)) - nodepairs_(1,_53) - nodepairs_(1,_54)
 <= 0
_C3260: edgepairs_((15,_16),_(0,_1)) - nodepairs_(15,_1) - nodepairs_(16,_1)
 <= 0
_C3261: edgepairs_((16,_17),_(0,_1)) - nodepairs_(16,_1) - nodepairs_(17,_1)
 <= 0
_C3262: edgepairs_((17,_18),_(0,_1)) - nodepairs_(17,_1) - nodepairs_(18,_1)
 <= 0
_C3263: edgepairs_((18,_19),_(0,_1)) - nodepairs_(18,_1) - nodepairs_(19,_1)
 <= 0
_C3264: edgepairs_((19,_20),_(0,_1)) - nodepairs_(19,_1) - nodepairs_(20,_1)
 <= 0
_C3265: edgepairs_((20,_21),_(0,_1)) - nodepairs_(20,_1) - nodepairs_(21,_1)
 <= 0
_C3266: edgepairs_((21,_22),_(0,_1)) - nodepairs_(21,_1) - nodepairs_(22,_1)
 <= 0
_C3267: edgepairs_((22,_23),_(0,_1)) - nodepairs_(22,_1) - nodepairs_(23,_1)
 <= 0
_C3268: edgepairs_((23,_24),_(0,_1)) - nodepairs_(23,_1) - nodepairs_(24,_1)
 <= 0
_C3269: edgepairs_((23,_25),_(0,_1)) - nodepairs_(23,_1) - nodepairs_(25,_1)
 <= 0
_C327: __dummy <= 0
_C3270: edgepairs_((26,_27),_(1,_2)) - nodepairs_(26,_1) <= 0
_C3271: edgepairs_((27,_28),_(1,_2)) - nodepairs_(28,_1) <= 0
_C3272: edgepairs_((28,_29),_(1,_2)) - nodepairs_(28,_1) <= 0
_C3273: edgepairs_((28,_30),_(0,_1)) - nodepairs_(28,_1) - nodepairs_(30,_1)
 <= 0
_C3274: edgepairs_((30,_31),_(0,_1)) - nodepairs_(30,_1) - nodepairs_(31,_1)
 <= 0
_C3275: edgepairs_((31,_32),_(0,_1)) - nodepairs_(31,_1) - nodepairs_(32,_1)
 <= 0
_C3276: edgepairs_((32,_33),_(0,_1)) - nodepairs_(32,_1) - nodepairs_(33,_1)
 <= 0
_C3277: edgepairs_((33,_34),_(0,_1)) - nodepairs_(33,_1) - nodepairs_(34,_1)
 <= 0
_C3278: edgepairs_((34,_35),_(0,_1)) - nodepairs_(34,_1) - nodepairs_(35,_1)
 <= 0
_C3279: edgepairs_((35,_36),_(0,_1)) - nodepairs_(35,_1) - nodepairs_(36,_1)
 <= 0
_C328: __dummy <= 0
_C3280: edgepairs_((36,_37),_(0,_1)) - nodepairs_(36,_1) - nodepairs_(37,_1)
 <= 0
_C3281: edgepairs_((37,_38),_(0,_1)) - nodepairs_(37,_1) - nodepairs_(38,_1)
 <= 0
_C3282: edgepairs_((38,_39),_(0,_1)) - nodepairs_(38,_1) - nodepairs_(39,_1)
 <= 0
_C3283: edgepairs_((39,_40),_(0,_1)) - nodepairs_(39,_1) - nodepairs_(40,_1)
 <= 0
_C3284: edgepairs_((40,_41),_(0,_1)) - nodepairs_(40,_1) - nodepairs_(41,_1)
 <= 0
_C3285: edgepairs_((40,_42),_(0,_1)) - nodepairs_(40,_1) - nodepairs_(42,_1)
 <= 0
_C3286: edgepairs_((43,_44),_(1,_2)) - nodepairs_(44,_1) <= 0
_C3287: edgepairs_((44,_45),_(1,_2)) - nodepairs_(44,_1) <= 0
_C3288: edgepairs_((44,_46),_(0,_1)) - nodepairs_(44,_1) - nodepairs_(46,_1)
 <= 0
_C3289: edgepairs_((46,_47),_(0,_1)) - nodepairs_(46,_1) - nodepairs_(47,_1)
 <= 0
_C329: edgepairs_((1,_2),_(0,_41)) + edgepairs_((2,_3),_(0,_41))
 - nodepairs_(2,_41) <= 0
_C3290: edgepairs_((47,_48),_(0,_1)) - nodepairs_(47,_1) - nodepairs_(48,_1)
 <= 0
_C3291: edgepairs_((48,_49),_(0,_1)) - nodepairs_(48,_1) - nodepairs_(49,_1)
 <= 0
_C3292: edgepairs_((49,_50),_(0,_1)) - nodepairs_(49,_1) - nodepairs_(50,_1)
 <= 0
_C3293: edgepairs_((50,_51),_(0,_1)) - nodepairs_(50,_1) - nodepairs_(51,_1)
 <= 0
_C3294: edgepairs_((51,_52),_(0,_1)) - nodepairs_(51,_1) - nodepairs_(52,_1)
 <= 0
_C3295: edgepairs_((52,_53),_(0,_1)) - nodepairs_(52,_1) - nodepairs_(53,_1)
 <= 0
_C3296: edgepairs_((53,_54),_(0,_1)) - nodepairs_(53,_1) - nodepairs_(54,_1)
 <= 0
_C3297: __dummy <= 0
_C3298: __dummy <= 0
_C3299: edgepairs_((0,_43),_(1,_2)) + edgepairs_((0,_43),_(2,_3))
 - nodepairs_(43,_2) <= 0
_C33: nodepairs_(32,_0) + nodepairs_(32,_1) + nodepairs_(32,_10)
 + nodepairs_(32,_11) + nodepairs_(32,_12) + nodepairs_(32,_13)
 + nodepairs_(32,_14) + nodepairs_(32,_15) + nodepairs_(32,_16)
 + nodepairs_(32,_17) + nodepairs_(32,_19) + nodepairs_(32,_21)
 + nodepairs_(32,_22) + nodepairs_(32,_23) + nodepairs_(32,_24)
 + nodepairs_(32,_25) + nodepairs_(32,_26) + nodepairs_(32,_27)
 + nodepairs_(32,_28) + nodepairs_(32,_29) + nodepairs_(32,_3)
 + nodepairs_(32,_30) + nodepairs_(32,_31) + nodepairs_(32,_32)
 + nodepairs_(32,_33) + nodepairs_(32,_34) + nodepairs_(32,_35)
 + nodepairs_(32,_36) + nodepairs_(32,_37) + nodepairs_(32,_38)
 + nodepairs_(32,_39) + nodepairs_(32,_40) + nodepairs_(32,_42)
 + nodepairs_(32,_44) + nodepairs_(32,_45) + nodepairs_(32,_46)
 + nodepairs_(32,_47) + nodepairs_(32,_48) + nodepairs_(32,_49)
 + nodepairs_(32,_5) + nodepairs_(32,_50) + nodepairs_(32,_51)
 + nodepairs_(32,_52) + nodepairs_(32,_53) + nodepairs_(32,_54)
 + nodepairs_(32,_6) + nodepairs_(32,_7) + nodepairs_(32,_8)
 + nodepairs_(32,_9) <= 1
_C330: edgepairs_((1,_2),_(1,_2)) + edgepairs_((2,_3),_(1,_2))
 - nodepairs_(2,_2) <= 0
_C3300: edgepairs_((1,_2),_(1,_2)) + edgepairs_((1,_2),_(2,_3))
 - nodepairs_(2,_2) <= 0
_C3301: edgepairs_((2,_3),_(1,_2)) + edgepairs_((2,_3),_(2,_3))
 - nodepairs_(2,_2) <= 0
_C3302: edgepairs_((3,_4),_(1,_2)) + edgepairs_((3,_4),_(2,_3))
 - nodepairs_(4,_2) <= 0
_C3303: __dummy <= 0
_C3304: __dummy <= 0
_C3305: __dummy <= 0
_C3306: __dummy <= 0
_C3307: __dummy <= 0
_C3308: __dummy <= 0
_C3309: __dummy <= 0
_C331: edgepairs_((1,_2),_(2,_3)) + edgepairs_((2,_3),_(2,_3))
 - nodepairs_(2,_2) <= 0
_C3310: __dummy <= 0
_C3311: __dummy <= 0
_C3312: __dummy <= 0
_C3313: __dummy <= 0
_C3314: __dummy <= 0
_C3315: __dummy <= 0
_C3316: __dummy <= 0
_C3317: __dummy <= 0
_C3318: __dummy <= 0
_C3319: __dummy <= 0
_C332: edgepairs_((1,_2),_(3,_4)) + edgepairs_((2,_3),_(3,_4))
 - nodepairs_(2,_4) <= 0
_C3320: __dummy <= 0
_C3321: __dummy <= 0
_C3322: __dummy <= 0
_C3323: __dummy <= 0
_C3324: edgepairs_((26,_27),_(1,_2)) + edgepairs_((26,_27),_(2,_3))
 - nodepairs_(27,_2) <= 0
_C3325: edgepairs_((27,_28),_(1,_2)) + edgepairs_((27,_28),_(2,_3))
 - nodepairs_(27,_2) <= 0
_C3326: edgepairs_((28,_29),_(1,_2)) + edgepairs_((28,_29),_(2,_3))
 - nodepairs_(29,_2) <= 0
_C3327: __dummy <= 0
_C3328: __dummy <= 0
_C3329: __dummy <= 0
_C333: __dummy <= 0
_C3330: __dummy <= 0
_C3331: __dummy <= 0
_C3332: __dummy <= 0
_C3333: __dummy <= 0
_C3334: __dummy <= 0
_C3335: __dummy <= 0
_C3336: __dummy <= 0
_C3337: __dummy <= 0
_C3338: __dummy <= 0
_C3339: __dummy <= 0
_C334: __dummy <= 0
_C3340: edgepairs_((43,_44),_(1,_2)) + edgepairs_((43,_44),_(2,_3))
 - nodepairs_(43,_2) <= 0
_C3341: edgepairs_((44,_45),_(1,_2)) + edgepairs_((44,_45),_(2,_3))
 - nodepairs_(45,_2) <= 0
_C3342: __dummy <= 0
_C3343: __dummy <= 0
_C3344: __dummy <= 0
_C3345: __dummy <= 0
_C3346: __dummy <= 0
_C3347: __dummy <= 0
_C3348: __dummy <= 0
_C3349: __dummy <= 0
_C335: __dummy <= 0
_C3350: __dummy <= 0
_C3351: edgepairs_((0,_1),_(3,_5)) - nodepairs_(0,_3) - nodepairs_(1,_3) <= 0
_C3352: edgepairs_((0,_26),_(3,_5)) - nodepairs_(0,_3) - nodepairs_(26,_3)
 <= 0
_C3353: edgepairs_((0,_43),_(2,_3)) + edgepairs_((0,_43),_(3,_4))
 - nodepairs_(0,_3) <= 0
_C3354: edgepairs_((1,_2),_(2,_3)) + edgepairs_((1,_2),_(3,_4))
 - nodepairs_(1,_3) <= 0
_C3355: edgepairs_((2,_3),_(2,_3)) + edgepairs_((2,_3),_(3,_4))
 - nodepairs_(3,_3) <= 0
_C3356: edgepairs_((3,_4),_(2,_3)) + edgepairs_((3,_4),_(3,_4))
 - nodepairs_(3,_3) <= 0
_C3357: edgepairs_((3,_5),_(3,_5)) - nodepairs_(3,_3) - nodepairs_(5,_3) <= 0
_C3358: edgepairs_((5,_6),_(3,_5)) - nodepairs_(5,_3) - nodepairs_(6,_3) <= 0
_C3359: edgepairs_((6,_7),_(3,_5)) - nodepairs_(6,_3) - nodepairs_(7,_3) <= 0
_C336: __dummy <= 0
_C3360: edgepairs_((7,_8),_(3,_5)) - nodepairs_(7,_3) - nodepairs_(8,_3) <= 0
_C3361: edgepairs_((8,_9),_(3,_5)) - nodepairs_(8,_3) - nodepairs_(9,_3) <= 0
_C3362: edgepairs_((9,_10),_(3,_5)) - nodepairs_(10,_3) - nodepairs_(9,_3)
 <= 0
_C3363: edgepairs_((10,_11),_(3,_5)) - nodepairs_(10,_3) - nodepairs_(11,_3)
 <= 0
_C3364: edgepairs_((11,_12),_(3,_5)) - nodepairs_(11,_3) - nodepairs_(12,_3)
 <= 0
_C3365: edgepairs_((12,_13),_(3,_5)) - nodepairs_(12,_3) - nodepairs_(13,_3)
 <= 0
_C3366: edgepairs_((13,_14),_(3,_5)) - nodepairs_(13,_3) - nodepairs_(14,_3)
 <= 0
_C3367: edgepairs_((14,_15),_(3,_5)) - nodepairs_(14,_3) - nodepairs_(15,_3)
 <= 0
_C3368: edgepairs_((15,_16),_(3,_5)) - nodepairs_(15,_3) - nodepairs_(16,_3)
 <= 0
_C3369: edgepairs_((16,_17),_(3,_5)) - nodepairs_(16,_3) - nodepairs_(17,_3)
 <= 0
_C337: __dummy <= 0
_C3370: edgepairs_((17,_18),_(3,_5)) - nodepairs_(17,_3) - nodepairs_(18,_3)
 <= 0
_C3371: edgepairs_((18,_19),_(3,_5)) - nodepairs_(18,_3) - nodepairs_(19,_3)
 <= 0
_C3372: edgepairs_((19,_20),_(3,_5)) - nodepairs_(19,_3) - nodepairs_(20,_3)
 <= 0
_C3373: edgepairs_((20,_21),_(3,_5)) - nodepairs_(20,_3) - nodepairs_(21,_3)
 <= 0
_C3374: edgepairs_((21,_22),_(3,_5)) - nodepairs_(21,_3) - nodepairs_(22,_3)
 <= 0
_C3375: edgepairs_((22,_23),_(3,_5)) - nodepairs_(22,_3) - nodepairs_(23,_3)
 <= 0
_C3376: edgepairs_((23,_24),_(3,_5)) - nodepairs_(23,_3) - nodepairs_(24,_3)
 <= 0
_C3377: edgepairs_((23,_25),_(3,_5)) - nodepairs_(23,_3) - nodepairs_(25,_3)
 <= 0
_C3378: edgepairs_((26,_27),_(2,_3)) + edgepairs_((26,_27),_(3,_4))
 - nodepairs_(26,_3) <= 0
_C3379: edgepairs_((27,_28),_(2,_3)) + edgepairs_((27,_28),_(3,_4))
 - nodepairs_(28,_3) <= 0
_C338: __dummy <= 0
_C3380: edgepairs_((28,_29),_(2,_3)) + edgepairs_((28,_29),_(3,_4))
 - nodepairs_(28,_3) <= 0
_C3381: edgepairs_((28,_30),_(3,_5)) - nodepairs_(28,_3) - nodepairs_(30,_3)
 <= 0
_C3382: edgepairs_((30,_31),_(3,_5)) - nodepairs_(30,_3) - nodepairs_(31,_3)
 <= 0
_C3383: edgepairs_((31,_32),_(3,_5)) - nodepairs_(31,_3) - nodepairs_(32,_3)
 <= 0
_C3384: edgepairs_((32,_33),_(3,_5)) - nodepairs_(32,_3) - nodepairs_(33,_3)
 <= 0
_C3385: edgepairs_((33,_34),_(3,_5)) - nodepairs_(33,_3) - nodepairs_(34,_3)
 <= 0
_C3386: edgepairs_((34,_35),_(3,_5)) - nodepairs_(34,_3) - nodepairs_(35,_3)
 <= 0
_C3387: edgepairs_((35,_36),_(3,_5)) - nodepairs_(35,_3) - nodepairs_(36,_3)
 <= 0
_C3388: edgepairs_((36,_37),_(3,_5)) - nodepairs_(36,_3) - nodepairs_(37,_3)
 <= 0
_C3389: edgepairs_((37,_38),_(3,_5)) - nodepairs_(37,_3) - nodepairs_(38,_3)
 <= 0
_C339: __dummy <= 0
_C3390: edgepairs_((38,_39),_(3,_5)) - nodepairs_(38,_3) - nodepairs_(39,_3)
 <= 0
_C3391: edgepairs_((39,_40),_(3,_5)) - nodepairs_(39,_3) - nodepairs_(40,_3)
 <= 0
_C3392: edgepairs_((40,_41),_(3,_5)) - nodepairs_(40,_3) - nodepairs_(41,_3)
 <= 0
_C3393: edgepairs_((40,_42),_(3,_5)) - nodepairs_(40,_3) - nodepairs_(42,_3)
 <= 0
_C3394: edgepairs_((43,_44),_(2,_3)) + edgepairs_((43,_44),_(3,_4))
 - nodepairs_(44,_3) <= 0
_C3395: edgepairs_((44,_45),_(2,_3)) + edgepairs_((44,_45),_(3,_4))
 - nodepairs_(44,_3) <= 0
_C3396: edgepairs_((44,_46),_(3,_5)) - nodepairs_(44,_3) - nodepairs_(46,_3)
 <= 0
_C3397: edgepairs_((46,_47),_(3,_5)) - nodepairs_(46,_3) - nodepairs_(47,_3)
 <= 0
_C3398: edgepairs_((47,_48),_(3,_5)) - nodepairs_(47,_3) - nodepairs_(48,_3)
 <= 0
_C3399: edgepairs_((48,_49),_(3,_5)) - nodepairs_(48,_3) - nodepairs_(49,_3)
 <= 0
_C34: nodepairs_(33,_0) + nodepairs_(33,_1) + nodepairs_(33,_10)
 + nodepairs_(33,_11) + nodepairs_(33,_12) + nodepairs_(33,_13)
 + nodepairs_(33,_14) + nodepairs_(33,_15) + nodepairs_(33,_16)
 + nodepairs_(33,_17) + nodepairs_(33,_19) + nodepairs_(33,_21)
 + nodepairs_(33,_22) + nodepairs_(33,_23) + nodepairs_(33,_24)
 + nodepairs_(33,_25) + nodepairs_(33,_26) + nodepairs_(33,_27)
 + nodepairs_(33,_28) + nodepairs_(33,_29) + nodepairs_(33,_3)
 + nodepairs_(33,_30) + nodepairs_(33,_31) + nodepairs_(33,_32)
 + nodepairs_(33,_33) + nodepairs_(33,_34) + nodepairs_(33,_35)
 + nodepairs_(33,_36) + nodepairs_(33,_37) + nodepairs_(33,_38)
 + nodepairs_(33,_39) + nodepairs_(33,_40) + nodepairs_(33,_42)
 + nodepairs_(33,_44) + nodepairs_(33,_45) + nodepairs_(33,_46)
 + nodepairs_(33,_47) + nodepairs_(33,_48) + nodepairs_(33,_49)
 + nodepairs_(33,_5) + nodepairs_(33,_50) + nodepairs_(33,_51)
 + nodepairs_(33,_52) + nodepairs_(33,_53) + nodepairs_(33,_54)
 + nodepairs_(33,_6) + nodepairs_(33,_7) + nodepairs_(33,_8)
 + nodepairs_(33,_9) <= 1
_C340: __dummy <= 0
_C3400: edgepairs_((49,_50),_(3,_5)) - nodepairs_(49,_3) - nodepairs_(50,_3)
 <= 0
_C3401: edgepairs_((50,_51),_(3,_5)) - nodepairs_(50,_3) - nodepairs_(51,_3)
 <= 0
_C3402: edgepairs_((51,_52),_(3,_5)) - nodepairs_(51,_3) - nodepairs_(52,_3)
 <= 0
_C3403: edgepairs_((52,_53),_(3,_5)) - nodepairs_(52,_3) - nodepairs_(53,_3)
 <= 0
_C3404: edgepairs_((53,_54),_(3,_5)) - nodepairs_(53,_3) - nodepairs_(54,_3)
 <= 0
_C3405: __dummy <= 0
_C3406: __dummy <= 0
_C3407: edgepairs_((0,_43),_(3,_4)) - nodepairs_(43,_4) <= 0
_C3408: edgepairs_((1,_2),_(3,_4)) - nodepairs_(2,_4) <= 0
_C3409: edgepairs_((2,_3),_(3,_4)) - nodepairs_(2,_4) <= 0
_C341: __dummy <= 0
_C3410: edgepairs_((3,_4),_(3,_4)) - nodepairs_(4,_4) <= 0
_C3411: __dummy <= 0
_C3412: __dummy <= 0
_C3413: __dummy <= 0
_C3414: __dummy <= 0
_C3415: __dummy <= 0
_C3416: __dummy <= 0
_C3417: __dummy <= 0
_C3418: __dummy <= 0
_C3419: __dummy <= 0
_C342: __dummy <= 0
_C3420: __dummy <= 0
_C3421: __dummy <= 0
_C3422: __dummy <= 0
_C3423: __dummy <= 0
_C3424: __dummy <= 0
_C3425: __dummy <= 0
_C3426: __dummy <= 0
_C3427: __dummy <= 0
_C3428: __dummy <= 0
_C3429: __dummy <= 0
_C343: __dummy <= 0
_C3430: __dummy <= 0
_C3431: __dummy <= 0
_C3432: edgepairs_((26,_27),_(3,_4)) - nodepairs_(27,_4) <= 0
_C3433: edgepairs_((27,_28),_(3,_4)) - nodepairs_(27,_4) <= 0
_C3434: edgepairs_((28,_29),_(3,_4)) - nodepairs_(29,_4) <= 0
_C3435: __dummy <= 0
_C3436: __dummy <= 0
_C3437: __dummy <= 0
_C3438: __dummy <= 0
_C3439: __dummy <= 0
_C344: __dummy <= 0
_C3440: __dummy <= 0
_C3441: __dummy <= 0
_C3442: __dummy <= 0
_C3443: __dummy <= 0
_C3444: __dummy <= 0
_C3445: __dummy <= 0
_C3446: __dummy <= 0
_C3447: __dummy <= 0
_C3448: edgepairs_((43,_44),_(3,_4)) - nodepairs_(43,_4) <= 0
_C3449: edgepairs_((44,_45),_(3,_4)) - nodepairs_(45,_4) <= 0
_C345: edgepairs_((1,_2),_(17,_18)) + edgepairs_((2,_3),_(17,_18))
 - nodepairs_(2,_18) <= 0
_C3450: __dummy <= 0
_C3451: __dummy <= 0
_C3452: __dummy <= 0
_C3453: __dummy <= 0
_C3454: __dummy <= 0
_C3455: __dummy <= 0
_C3456: __dummy <= 0
_C3457: __dummy <= 0
_C3458: __dummy <= 0
_C3459: edgepairs_((0,_1),_(3,_5)) + edgepairs_((0,_1),_(5,_6))
 - nodepairs_(0,_5) - nodepairs_(1,_5) <= 0
_C346: edgepairs_((1,_2),_(18,_19)) + edgepairs_((2,_3),_(18,_19))
 - nodepairs_(2,_18) <= 0
_C3460: edgepairs_((0,_26),_(3,_5)) + edgepairs_((0,_26),_(5,_6))
 - nodepairs_(0,_5) - nodepairs_(26,_5) <= 0
_C3461: - nodepairs_(0,_5) <= 0
_C3462: - nodepairs_(1,_5) <= 0
_C3463: - nodepairs_(3,_5) <= 0
_C3464: - nodepairs_(3,_5) <= 0
_C3465: edgepairs_((3,_5),_(3,_5)) + edgepairs_((3,_5),_(5,_6))
 - nodepairs_(3,_5) - nodepairs_(5,_5) <= 0
_C3466: edgepairs_((5,_6),_(3,_5)) + edgepairs_((5,_6),_(5,_6))
 - nodepairs_(5,_5) - nodepairs_(6,_5) <= 0
_C3467: edgepairs_((6,_7),_(3,_5)) + edgepairs_((6,_7),_(5,_6))
 - nodepairs_(6,_5) - nodepairs_(7,_5) <= 0
_C3468: edgepairs_((7,_8),_(3,_5)) + edgepairs_((7,_8),_(5,_6))
 - nodepairs_(7,_5) - nodepairs_(8,_5) <= 0
_C3469: edgepairs_((8,_9),_(3,_5)) + edgepairs_((8,_9),_(5,_6))
 - nodepairs_(8,_5) - nodepairs_(9,_5) <= 0
_C347: edgepairs_((1,_2),_(19,_20)) + edgepairs_((2,_3),_(19,_20))
 - nodepairs_(2,_20) <= 0
_C3470: edgepairs_((9,_10),_(3,_5)) + edgepairs_((9,_10),_(5,_6))
 - nodepairs_(10,_5) - nodepairs_(9,_5) <= 0
_C3471: edgepairs_((10,_11),_(3,_5)) + edgepairs_((10,_11),_(5,_6))
 - nodepairs_(10,_5) - nodepairs_(11,_5) <= 0
_C3472: edgepairs_((11,_12),_(3,_5)) + edgepairs_((11,_12),_(5,_6))
 - nodepairs_(11,_5) - nodepairs_(12,_5) <= 0
_C3473: edgepairs_((12,_13),_(3,_5)) + edgepairs_((12,_13),_(5,_6))
 - nodepairs_(12,_5) - nodepairs_(13,_5) <= 0
_C3474: edgepairs_((13,_14),_(3,_5)) + edgepairs_((13,_14),_(5,_6))
 - nodepairs_(13,_5) - nodepairs_(14,_5) <= 0
_C3475: edgepairs_((14,_15),_(3,_5)) + edgepairs_((14,_15),_(5,_6))
 - nodepairs_(14,_5) - nodepairs_(15,_5) <= 0
_C3476: edgepairs_((15,_16),_(3,_5)) + edgepairs_((15,_16),_(5,_6))
 - nodepairs_(15,_5) - nodepairs_(16,_5) <= 0
_C3477: edgepairs_((16,_17),_(3,_5)) + edgepairs_((16,_17),_(5,_6))
 - nodepairs_(16,_5) - nodepairs_(17,_5) <= 0
_C3478: edgepairs_((17,_18),_(3,_5)) + edgepairs_((17,_18),_(5,_6))
 - nodepairs_(17,_5) - nodepairs_(18,_5) <= 0
_C3479: edgepairs_((18,_19),_(3,_5)) + edgepairs_((18,_19),_(5,_6))
 - nodepairs_(18,_5) - nodepairs_(19,_5) <= 0
_C348: __dummy <= 0
_C3480: edgepairs_((19,_20),_(3,_5)) + edgepairs_((19,_20),_(5,_6))
 - nodepairs_(19,_5) - nodepairs_(20,_5) <= 0
_C3481: edgepairs_((20,_21),_(3,_5)) + edgepairs_((20,_21),_(5,_6))
 - nodepairs_(20,_5) - nodepairs_(21,_5) <= 0
_C3482: edgepairs_((21,_22),_(3,_5)) + edgepairs_((21,_22),_(5,_6))
 - nodepairs_(21,_5) - nodepairs_(22,_5) <= 0
_C3483: edgepairs_((22,_23),_(3,_5)) + edgepairs_((22,_23),_(5,_6))
 - nodepairs_(22,_5) - nodepairs_(23,_5) <= 0
_C3484: edgepairs_((23,_24),_(3,_5)) + edgepairs_((23,_24),_(5,_6))
 - nodepairs_(23,_5) - nodepairs_(24,_5) <= 0
_C3485: edgepairs_((23,_25),_(3,_5)) + edgepairs_((23,_25),_(5,_6))
 - nodepairs_(23,_5) - nodepairs_(25,_5) <= 0
_C3486: - nodepairs_(26,_5) <= 0
_C3487: - nodepairs_(28,_5) <= 0
_C3488: - nodepairs_(28,_5) <= 0
_C3489: edgepairs_((28,_30),_(3,_5)) + edgepairs_((28,_30),_(5,_6))
 - nodepairs_(28,_5) - nodepairs_(30,_5) <= 0
_C349: __dummy <= 0
_C3490: edgepairs_((30,_31),_(3,_5)) + edgepairs_((30,_31),_(5,_6))
 - nodepairs_(30,_5) - nodepairs_(31,_5) <= 0
_C3491: edgepairs_((31,_32),_(3,_5)) + edgepairs_((31,_32),_(5,_6))
 - nodepairs_(31,_5) - nodepairs_(32,_5) <= 0
_C3492: edgepairs_((32,_33),_(3,_5)) + edgepairs_((32,_33),_(5,_6))
 - nodepairs_(32,_5) - nodepairs_(33,_5) <= 0
_C3493: edgepairs_((33,_34),_(3,_5)) + edgepairs_((33,_34),_(5,_6))
 - nodepairs_(33,_5) - nodepairs_(34,_5) <= 0
_C3494: edgepairs_((34,_35),_(3,_5)) + edgepairs_((34,_35),_(5,_6))
 - nodepairs_(34,_5) - nodepairs_(35,_5) <= 0
_C3495: edgepairs_((35,_36),_(3,_5)) + edgepairs_((35,_36),_(5,_6))
 - nodepairs_(35,_5) - nodepairs_(36,_5) <= 0
_C3496: edgepairs_((36,_37),_(3,_5)) + edgepairs_((36,_37),_(5,_6))
 - nodepairs_(36,_5) - nodepairs_(37,_5) <= 0
_C3497: edgepairs_((37,_38),_(3,_5)) + edgepairs_((37,_38),_(5,_6))
 - nodepairs_(37,_5) - nodepairs_(38,_5) <= 0
_C3498: edgepairs_((38,_39),_(3,_5)) + edgepairs_((38,_39),_(5,_6))
 - nodepairs_(38,_5) - nodepairs_(39,_5) <= 0
_C3499: edgepairs_((39,_40),_(3,_5)) + edgepairs_((39,_40),_(5,_6))
 - nodepairs_(39,_5) - nodepairs_(40,_5) <= 0
_C35: nodepairs_(34,_0) + nodepairs_(34,_1) + nodepairs_(34,_10)
 + nodepairs_(34,_11) + nodepairs_(34,_12) + nodepairs_(34,_13)
 + nodepairs_(34,_14) + nodepairs_(34,_15) + nodepairs_(34,_16)
 + nodepairs_(34,_17) + nodepairs_(34,_19) + nodepairs_(34,_21)
 + nodepairs_(34,_22) + nodepairs_(34,_23) + nodepairs_(34,_24)
 + nodepairs_(34,_25) + nodepairs_(34,_26) + nodepairs_(34,_27)
 + nodepairs_(34,_28) + nodepairs_(34,_29) + nodepairs_(34,_3)
 + nodepairs_(34,_30) + nodepairs_(34,_31) + nodepairs_(34,_32)
 + nodepairs_(34,_33) + nodepairs_(34,_34) + nodepairs_(34,_35)
 + nodepairs_(34,_36) + nodepairs_(34,_37) + nodepairs_(34,_38)
 + nodepairs_(34,_39) + nodepairs_(34,_40) + nodepairs_(34,_42)
 + nodepairs_(34,_44) + nodepairs_(34,_45) + nodepairs_(34,_46)
 + nodepairs_(34,_47) + nodepairs_(34,_48) + nodepairs_(34,_49)
 + nodepairs_(34,_5) + nodepairs_(34,_50) + nodepairs_(34,_51)
 + nodepairs_(34,_52) + nodepairs_(34,_53) + nodepairs_(34,_54)
 + nodepairs_(34,_6) + nodepairs_(34,_7) + nodepairs_(34,_8)
 + nodepairs_(34,_9) <= 1
_C350: __dummy <= 0
_C3500: edgepairs_((40,_41),_(3,_5)) + edgepairs_((40,_41),_(5,_6))
 - nodepairs_(40,_5) - nodepairs_(41,_5) <= 0
_C3501: edgepairs_((40,_42),_(3,_5)) + edgepairs_((40,_42),_(5,_6))
 - nodepairs_(40,_5) - nodepairs_(42,_5) <= 0
_C3502: - nodepairs_(44,_5) <= 0
_C3503: - nodepairs_(44,_5) <= 0
_C3504: edgepairs_((44,_46),_(3,_5)) + edgepairs_((44,_46),_(5,_6))
 - nodepairs_(44,_5) - nodepairs_(46,_5) <= 0
_C3505: edgepairs_((46,_47),_(3,_5)) + edgepairs_((46,_47),_(5,_6))
 - nodepairs_(46,_5) - nodepairs_(47,_5) <= 0
_C3506: edgepairs_((47,_48),_(3,_5)) + edgepairs_((47,_48),_(5,_6))
 - nodepairs_(47,_5) - nodepairs_(48,_5) <= 0
_C3507: edgepairs_((48,_49),_(3,_5)) + edgepairs_((48,_49),_(5,_6))
 - nodepairs_(48,_5) - nodepairs_(49,_5) <= 0
_C3508: edgepairs_((49,_50),_(3,_5)) + edgepairs_((49,_50),_(5,_6))
 - nodepairs_(49,_5) - nodepairs_(50,_5) <= 0
_C3509: edgepairs_((50,_51),_(3,_5)) + edgepairs_((50,_51),_(5,_6))
 - nodepairs_(50,_5) - nodepairs_(51,_5) <= 0
_C351: __dummy <= 0
_C3510: edgepairs_((51,_52),_(3,_5)) + edgepairs_((51,_52),_(5,_6))
 - nodepairs_(51,_5) - nodepairs_(52,_5) <= 0
_C3511: edgepairs_((52,_53),_(3,_5)) + edgepairs_((52,_53),_(5,_6))
 - nodepairs_(52,_5) - nodepairs_(53,_5) <= 0
_C3512: edgepairs_((53,_54),_(3,_5)) + edgepairs_((53,_54),_(5,_6))
 - nodepairs_(53,_5) - nodepairs_(54,_5) <= 0
_C3513: edgepairs_((0,_1),_(5,_6)) + edgepairs_((0,_1),_(6,_7))
 - nodepairs_(0,_6) - nodepairs_(1,_6) <= 0
_C3514: edgepairs_((0,_26),_(5,_6)) + edgepairs_((0,_26),_(6,_7))
 - nodepairs_(0,_6) - nodepairs_(26,_6) <= 0
_C3515: - nodepairs_(0,_6) <= 0
_C3516: - nodepairs_(1,_6) <= 0
_C3517: - nodepairs_(3,_6) <= 0
_C3518: - nodepairs_(3,_6) <= 0
_C3519: edgepairs_((3,_5),_(5,_6)) + edgepairs_((3,_5),_(6,_7))
 - nodepairs_(3,_6) - nodepairs_(5,_6) <= 0
_C352: __dummy <= 0
_C3520: edgepairs_((5,_6),_(5,_6)) + edgepairs_((5,_6),_(6,_7))
 - nodepairs_(5,_6) - nodepairs_(6,_6) <= 0
_C3521: edgepairs_((6,_7),_(5,_6)) + edgepairs_((6,_7),_(6,_7))
 - nodepairs_(6,_6) - nodepairs_(7,_6) <= 0
_C3522: edgepairs_((7,_8),_(5,_6)) + edgepairs_((7,_8),_(6,_7))
 - nodepairs_(7,_6) - nodepairs_(8,_6) <= 0
_C3523: edgepairs_((8,_9),_(5,_6)) + edgepairs_((8,_9),_(6,_7))
 - nodepairs_(8,_6) - nodepairs_(9,_6) <= 0
_C3524: edgepairs_((9,_10),_(5,_6)) + edgepairs_((9,_10),_(6,_7))
 - nodepairs_(10,_6) - nodepairs_(9,_6) <= 0
_C3525: edgepairs_((10,_11),_(5,_6)) + edgepairs_((10,_11),_(6,_7))
 - nodepairs_(10,_6) - nodepairs_(11,_6) <= 0
_C3526: edgepairs_((11,_12),_(5,_6)) + edgepairs_((11,_12),_(6,_7))
 - nodepairs_(11,_6) - nodepairs_(12,_6) <= 0
_C3527: edgepairs_((12,_13),_(5,_6)) + edgepairs_((12,_13),_(6,_7))
 - nodepairs_(12,_6) - nodepairs_(13,_6) <= 0
_C3528: edgepairs_((13,_14),_(5,_6)) + edgepairs_((13,_14),_(6,_7))
 - nodepairs_(13,_6) - nodepairs_(14,_6) <= 0
_C3529: edgepairs_((14,_15),_(5,_6)) + edgepairs_((14,_15),_(6,_7))
 - nodepairs_(14,_6) - nodepairs_(15,_6) <= 0
_C353: __dummy <= 0
_C3530: edgepairs_((15,_16),_(5,_6)) + edgepairs_((15,_16),_(6,_7))
 - nodepairs_(15,_6) - nodepairs_(16,_6) <= 0
_C3531: edgepairs_((16,_17),_(5,_6)) + edgepairs_((16,_17),_(6,_7))
 - nodepairs_(16,_6) - nodepairs_(17,_6) <= 0
_C3532: edgepairs_((17,_18),_(5,_6)) + edgepairs_((17,_18),_(6,_7))
 - nodepairs_(17,_6) - nodepairs_(18,_6) <= 0
_C3533: edgepairs_((18,_19),_(5,_6)) + edgepairs_((18,_19),_(6,_7))
 - nodepairs_(18,_6) - nodepairs_(19,_6) <= 0
_C3534: edgepairs_((19,_20),_(5,_6)) + edgepairs_((19,_20),_(6,_7))
 - nodepairs_(19,_6) - nodepairs_(20,_6) <= 0
_C3535: edgepairs_((20,_21),_(5,_6)) + edgepairs_((20,_21),_(6,_7))
 - nodepairs_(20,_6) - nodepairs_(21,_6) <= 0
_C3536: edgepairs_((21,_22),_(5,_6)) + edgepairs_((21,_22),_(6,_7))
 - nodepairs_(21,_6) - nodepairs_(22,_6) <= 0
_C3537: edgepairs_((22,_23),_(5,_6)) + edgepairs_((22,_23),_(6,_7))
 - nodepairs_(22,_6) - nodepairs_(23,_6) <= 0
_C3538: edgepairs_((23,_24),_(5,_6)) + edgepairs_((23,_24),_(6,_7))
 - nodepairs_(23,_6) - nodepairs_(24,_6) <= 0
_C3539: edgepairs_((23,_25),_(5,_6)) + edgepairs_((23,_25),_(6,_7))
 - nodepairs_(23,_6) - nodepairs_(25,_6) <= 0
_C354: __dummy <= 0
_C3540: - nodepairs_(26,_6) <= 0
_C3541: - nodepairs_(28,_6) <= 0
_C3542: - nodepairs_(28,_6) <= 0
_C3543: edgepairs_((28,_30),_(5,_6)) + edgepairs_((28,_30),_(6,_7))
 - nodepairs_(28,_6) - nodepairs_(30,_6) <= 0
_C3544: edgepairs_((30,_31),_(5,_6)) + edgepairs_((30,_31),_(6,_7))
 - nodepairs_(30,_6) - nodepairs_(31,_6) <= 0
_C3545: edgepairs_((31,_32),_(5,_6)) + edgepairs_((31,_32),_(6,_7))
 - nodepairs_(31,_6) - nodepairs_(32,_6) <= 0
_C3546: edgepairs_((32,_33),_(5,_6)) + edgepairs_((32,_33),_(6,_7))
 - nodepairs_(32,_6) - nodepairs_(33,_6) <= 0
_C3547: edgepairs_((33,_34),_(5,_6)) + edgepairs_((33,_34),_(6,_7))
 - nodepairs_(33,_6) - nodepairs_(34,_6) <= 0
_C3548: edgepairs_((34,_35),_(5,_6)) + edgepairs_((34,_35),_(6,_7))
 - nodepairs_(34,_6) - nodepairs_(35,_6) <= 0
_C3549: edgepairs_((35,_36),_(5,_6)) + edgepairs_((35,_36),_(6,_7))
 - nodepairs_(35,_6) - nodepairs_(36,_6) <= 0
_C355: __dummy <= 0
_C3550: edgepairs_((36,_37),_(5,_6)) + edgepairs_((36,_37),_(6,_7))
 - nodepairs_(36,_6) - nodepairs_(37,_6) <= 0
_C3551: edgepairs_((37,_38),_(5,_6)) + edgepairs_((37,_38),_(6,_7))
 - nodepairs_(37,_6) - nodepairs_(38,_6) <= 0
_C3552: edgepairs_((38,_39),_(5,_6)) + edgepairs_((38,_39),_(6,_7))
 - nodepairs_(38,_6) - nodepairs_(39,_6) <= 0
_C3553: edgepairs_((39,_40),_(5,_6)) + edgepairs_((39,_40),_(6,_7))
 - nodepairs_(39,_6) - nodepairs_(40,_6) <= 0
_C3554: edgepairs_((40,_41),_(5,_6)) + edgepairs_((40,_41),_(6,_7))
 - nodepairs_(40,_6) - nodepairs_(41,_6) <= 0
_C3555: edgepairs_((40,_42),_(5,_6)) + edgepairs_((40,_42),_(6,_7))
 - nodepairs_(40,_6) - nodepairs_(42,_6) <= 0
_C3556: - nodepairs_(44,_6) <= 0
_C3557: - nodepairs_(44,_6) <= 0
_C3558: edgepairs_((44,_46),_(5,_6)) + edgepairs_((44,_46),_(6,_7))
 - nodepairs_(44,_6) - nodepairs_(46,_6) <= 0
_C3559: edgepairs_((46,_47),_(5,_6)) + edgepairs_((46,_47),_(6,_7))
 - nodepairs_(46,_6) - nodepairs_(47,_6) <= 0
_C356: __dummy <= 0
_C3560: edgepairs_((47,_48),_(5,_6)) + edgepairs_((47,_48),_(6,_7))
 - nodepairs_(47,_6) - nodepairs_(48,_6) <= 0
_C3561: edgepairs_((48,_49),_(5,_6)) + edgepairs_((48,_49),_(6,_7))
 - nodepairs_(48,_6) - nodepairs_(49,_6) <= 0
_C3562: edgepairs_((49,_50),_(5,_6)) + edgepairs_((49,_50),_(6,_7))
 - nodepairs_(49,_6) - nodepairs_(50,_6) <= 0
_C3563: edgepairs_((50,_51),_(5,_6)) + edgepairs_((50,_51),_(6,_7))
 - nodepairs_(50,_6) - nodepairs_(51,_6) <= 0
_C3564: edgepairs_((51,_52),_(5,_6)) + edgepairs_((51,_52),_(6,_7))
 - nodepairs_(51,_6) - nodepairs_(52,_6) <= 0
_C3565: edgepairs_((52,_53),_(5,_6)) + edgepairs_((52,_53),_(6,_7))
 - nodepairs_(52,_6) - nodepairs_(53,_6) <= 0
_C3566: edgepairs_((53,_54),_(5,_6)) + edgepairs_((53,_54),_(6,_7))
 - nodepairs_(53,_6) - nodepairs_(54,_6) <= 0
_C3567: edgepairs_((0,_1),_(6,_7)) + edgepairs_((0,_1),_(7,_8))
 - nodepairs_(0,_7) - nodepairs_(1,_7) <= 0
_C3568: edgepairs_((0,_26),_(6,_7)) + edgepairs_((0,_26),_(7,_8))
 - nodepairs_(0,_7) - nodepairs_(26,_7) <= 0
_C3569: - nodepairs_(0,_7) <= 0
_C357: __dummy <= 0
_C3570: - nodepairs_(1,_7) <= 0
_C3571: - nodepairs_(3,_7) <= 0
_C3572: - nodepairs_(3,_7) <= 0
_C3573: edgepairs_((3,_5),_(6,_7)) + edgepairs_((3,_5),_(7,_8))
 - nodepairs_(3,_7) - nodepairs_(5,_7) <= 0
_C3574: edgepairs_((5,_6),_(6,_7)) + edgepairs_((5,_6),_(7,_8))
 - nodepairs_(5,_7) - nodepairs_(6,_7) <= 0
_C3575: edgepairs_((6,_7),_(6,_7)) + edgepairs_((6,_7),_(7,_8))
 - nodepairs_(6,_7) - nodepairs_(7,_7) <= 0
_C3576: edgepairs_((7,_8),_(6,_7)) + edgepairs_((7,_8),_(7,_8))
 - nodepairs_(7,_7) - nodepairs_(8,_7) <= 0
_C3577: edgepairs_((8,_9),_(6,_7)) + edgepairs_((8,_9),_(7,_8))
 - nodepairs_(8,_7) - nodepairs_(9,_7) <= 0
_C3578: edgepairs_((9,_10),_(6,_7)) + edgepairs_((9,_10),_(7,_8))
 - nodepairs_(10,_7) - nodepairs_(9,_7) <= 0
_C3579: edgepairs_((10,_11),_(6,_7)) + edgepairs_((10,_11),_(7,_8))
 - nodepairs_(10,_7) - nodepairs_(11,_7) <= 0
_C358: __dummy <= 0
_C3580: edgepairs_((11,_12),_(6,_7)) + edgepairs_((11,_12),_(7,_8))
 - nodepairs_(11,_7) - nodepairs_(12,_7) <= 0
_C3581: edgepairs_((12,_13),_(6,_7)) + edgepairs_((12,_13),_(7,_8))
 - nodepairs_(12,_7) - nodepairs_(13,_7) <= 0
_C3582: edgepairs_((13,_14),_(6,_7)) + edgepairs_((13,_14),_(7,_8))
 - nodepairs_(13,_7) - nodepairs_(14,_7) <= 0
_C3583: edgepairs_((14,_15),_(6,_7)) + edgepairs_((14,_15),_(7,_8))
 - nodepairs_(14,_7) - nodepairs_(15,_7) <= 0
_C3584: edgepairs_((15,_16),_(6,_7)) + edgepairs_((15,_16),_(7,_8))
 - nodepairs_(15,_7) - nodepairs_(16,_7) <= 0
_C3585: edgepairs_((16,_17),_(6,_7)) + edgepairs_((16,_17),_(7,_8))
 - nodepairs_(16,_7) - nodepairs_(17,_7) <= 0
_C3586: edgepairs_((17,_18),_(6,_7)) + edgepairs_((17,_18),_(7,_8))
 - nodepairs_(17,_7) - nodepairs_(18,_7) <= 0
_C3587: edgepairs_((18,_19),_(6,_7)) + edgepairs_((18,_19),_(7,_8))
 - nodepairs_(18,_7) - nodepairs_(19,_7) <= 0
_C3588: edgepairs_((19,_20),_(6,_7)) + edgepairs_((19,_20),_(7,_8))
 - nodepairs_(19,_7) - nodepairs_(20,_7) <= 0
_C3589: edgepairs_((20,_21),_(6,_7)) + edgepairs_((20,_21),_(7,_8))
 - nodepairs_(20,_7) - nodepairs_(21,_7) <= 0
_C359: __dummy <= 0
_C3590: edgepairs_((21,_22),_(6,_7)) + edgepairs_((21,_22),_(7,_8))
 - nodepairs_(21,_7) - nodepairs_(22,_7) <= 0
_C3591: edgepairs_((22,_23),_(6,_7)) + edgepairs_((22,_23),_(7,_8))
 - nodepairs_(22,_7) - nodepairs_(23,_7) <= 0
_C3592: edgepairs_((23,_24),_(6,_7)) + edgepairs_((23,_24),_(7,_8))
 - nodepairs_(23,_7) - nodepairs_(24,_7) <= 0
_C3593: edgepairs_((23,_25),_(6,_7)) + edgepairs_((23,_25),_(7,_8))
 - nodepairs_(23,_7) - nodepairs_(25,_7) <= 0
_C3594: - nodepairs_(26,_7) <= 0
_C3595: - nodepairs_(28,_7) <= 0
_C3596: - nodepairs_(28,_7) <= 0
_C3597: edgepairs_((28,_30),_(6,_7)) + edgepairs_((28,_30),_(7,_8))
 - nodepairs_(28,_7) - nodepairs_(30,_7) <= 0
_C3598: edgepairs_((30,_31),_(6,_7)) + edgepairs_((30,_31),_(7,_8))
 - nodepairs_(30,_7) - nodepairs_(31,_7) <= 0
_C3599: edgepairs_((31,_32),_(6,_7)) + edgepairs_((31,_32),_(7,_8))
 - nodepairs_(31,_7) - nodepairs_(32,_7) <= 0
_C36: nodepairs_(35,_0) + nodepairs_(35,_1) + nodepairs_(35,_10)
 + nodepairs_(35,_11) + nodepairs_(35,_12) + nodepairs_(35,_13)
 + nodepairs_(35,_14) + nodepairs_(35,_15) + nodepairs_(35,_16)
 + nodepairs_(35,_17) + nodepairs_(35,_19) + nodepairs_(35,_21)
 + nodepairs_(35,_22) + nodepairs_(35,_23) + nodepairs_(35,_24)
 + nodepairs_(35,_25) + nodepairs_(35,_26) + nodepairs_(35,_27)
 + nodepairs_(35,_28) + nodepairs_(35,_29) + nodepairs_(35,_3)
 + nodepairs_(35,_30) + nodepairs_(35,_31) + nodepairs_(35,_32)
 + nodepairs_(35,_33) + nodepairs_(35,_34) + nodepairs_(35,_35)
 + nodepairs_(35,_36) + nodepairs_(35,_37) + nodepairs_(35,_38)
 + nodepairs_(35,_39) + nodepairs_(35,_40) + nodepairs_(35,_42)
 + nodepairs_(35,_44) + nodepairs_(35,_45) + nodepairs_(35,_46)
 + nodepairs_(35,_47) + nodepairs_(35,_48) + nodepairs_(35,_49)
 + nodepairs_(35,_5) + nodepairs_(35,_50) + nodepairs_(35,_51)
 + nodepairs_(35,_52) + nodepairs_(35,_53) + nodepairs_(35,_54)
 + nodepairs_(35,_6) + nodepairs_(35,_7) + nodepairs_(35,_8)
 + nodepairs_(35,_9) <= 1
_C360: __dummy <= 0
_C3600: edgepairs_((32,_33),_(6,_7)) + edgepairs_((32,_33),_(7,_8))
 - nodepairs_(32,_7) - nodepairs_(33,_7) <= 0
_C3601: edgepairs_((33,_34),_(6,_7)) + edgepairs_((33,_34),_(7,_8))
 - nodepairs_(33,_7) - nodepairs_(34,_7) <= 0
_C3602: edgepairs_((34,_35),_(6,_7)) + edgepairs_((34,_35),_(7,_8))
 - nodepairs_(34,_7) - nodepairs_(35,_7) <= 0
_C3603: edgepairs_((35,_36),_(6,_7)) + edgepairs_((35,_36),_(7,_8))
 - nodepairs_(35,_7) - nodepairs_(36,_7) <= 0
_C3604: edgepairs_((36,_37),_(6,_7)) + edgepairs_((36,_37),_(7,_8))
 - nodepairs_(36,_7) - nodepairs_(37,_7) <= 0
_C3605: edgepairs_((37,_38),_(6,_7)) + edgepairs_((37,_38),_(7,_8))
 - nodepairs_(37,_7) - nodepairs_(38,_7) <= 0
_C3606: edgepairs_((38,_39),_(6,_7)) + edgepairs_((38,_39),_(7,_8))
 - nodepairs_(38,_7) - nodepairs_(39,_7) <= 0
_C3607: edgepairs_((39,_40),_(6,_7)) + edgepairs_((39,_40),_(7,_8))
 - nodepairs_(39,_7) - nodepairs_(40,_7) <= 0
_C3608: edgepairs_((40,_41),_(6,_7)) + edgepairs_((40,_41),_(7,_8))
 - nodepairs_(40,_7) - nodepairs_(41,_7) <= 0
_C3609: edgepairs_((40,_42),_(6,_7)) + edgepairs_((40,_42),_(7,_8))
 - nodepairs_(40,_7) - nodepairs_(42,_7) <= 0
_C361: __dummy <= 0
_C3610: - nodepairs_(44,_7) <= 0
_C3611: - nodepairs_(44,_7) <= 0
_C3612: edgepairs_((44,_46),_(6,_7)) + edgepairs_((44,_46),_(7,_8))
 - nodepairs_(44,_7) - nodepairs_(46,_7) <= 0
_C3613: edgepairs_((46,_47),_(6,_7)) + edgepairs_((46,_47),_(7,_8))
 - nodepairs_(46,_7) - nodepairs_(47,_7) <= 0
_C3614: edgepairs_((47,_48),_(6,_7)) + edgepairs_((47,_48),_(7,_8))
 - nodepairs_(47,_7) - nodepairs_(48,_7) <= 0
_C3615: edgepairs_((48,_49),_(6,_7)) + edgepairs_((48,_49),_(7,_8))
 - nodepairs_(48,_7) - nodepairs_(49,_7) <= 0
_C3616: edgepairs_((49,_50),_(6,_7)) + edgepairs_((49,_50),_(7,_8))
 - nodepairs_(49,_7) - nodepairs_(50,_7) <= 0
_C3617: edgepairs_((50,_51),_(6,_7)) + edgepairs_((50,_51),_(7,_8))
 - nodepairs_(50,_7) - nodepairs_(51,_7) <= 0
_C3618: edgepairs_((51,_52),_(6,_7)) + edgepairs_((51,_52),_(7,_8))
 - nodepairs_(51,_7) - nodepairs_(52,_7) <= 0
_C3619: edgepairs_((52,_53),_(6,_7)) + edgepairs_((52,_53),_(7,_8))
 - nodepairs_(52,_7) - nodepairs_(53,_7) <= 0
_C362: __dummy <= 0
_C3620: edgepairs_((53,_54),_(6,_7)) + edgepairs_((53,_54),_(7,_8))
 - nodepairs_(53,_7) - nodepairs_(54,_7) <= 0
_C3621: edgepairs_((0,_1),_(7,_8)) + edgepairs_((0,_1),_(8,_9))
 - nodepairs_(0,_8) - nodepairs_(1,_8) <= 0
_C3622: edgepairs_((0,_26),_(7,_8)) + edgepairs_((0,_26),_(8,_9))
 - nodepairs_(0,_8) - nodepairs_(26,_8) <= 0
_C3623: - nodepairs_(0,_8) <= 0
_C3624: - nodepairs_(1,_8) <= 0
_C3625: - nodepairs_(3,_8) <= 0
_C3626: - nodepairs_(3,_8) <= 0
_C3627: edgepairs_((3,_5),_(7,_8)) + edgepairs_((3,_5),_(8,_9))
 - nodepairs_(3,_8) - nodepairs_(5,_8) <= 0
_C3628: edgepairs_((5,_6),_(7,_8)) + edgepairs_((5,_6),_(8,_9))
 - nodepairs_(5,_8) - nodepairs_(6,_8) <= 0
_C3629: edgepairs_((6,_7),_(7,_8)) + edgepairs_((6,_7),_(8,_9))
 - nodepairs_(6,_8) - nodepairs_(7,_8) <= 0
_C363: __dummy <= 0
_C3630: edgepairs_((7,_8),_(7,_8)) + edgepairs_((7,_8),_(8,_9))
 - nodepairs_(7,_8) - nodepairs_(8,_8) <= 0
_C3631: edgepairs_((8,_9),_(7,_8)) + edgepairs_((8,_9),_(8,_9))
 - nodepairs_(8,_8) - nodepairs_(9,_8) <= 0
_C3632: edgepairs_((9,_10),_(7,_8)) + edgepairs_((9,_10),_(8,_9))
 - nodepairs_(10,_8) - nodepairs_(9,_8) <= 0
_C3633: edgepairs_((10,_11),_(7,_8)) + edgepairs_((10,_11),_(8,_9))
 - nodepairs_(10,_8) - nodepairs_(11,_8) <= 0
_C3634: edgepairs_((11,_12),_(7,_8)) + edgepairs_((11,_12),_(8,_9))
 - nodepairs_(11,_8) - nodepairs_(12,_8) <= 0
_C3635: edgepairs_((12,_13),_(7,_8)) + edgepairs_((12,_13),_(8,_9))
 - nodepairs_(12,_8) - nodepairs_(13,_8) <= 0
_C3636: edgepairs_((13,_14),_(7,_8)) + edgepairs_((13,_14),_(8,_9))
 - nodepairs_(13,_8) - nodepairs_(14,_8) <= 0
_C3637: edgepairs_((14,_15),_(7,_8)) + edgepairs_((14,_15),_(8,_9))
 - nodepairs_(14,_8) - nodepairs_(15,_8) <= 0
_C3638: edgepairs_((15,_16),_(7,_8)) + edgepairs_((15,_16),_(8,_9))
 - nodepairs_(15,_8) - nodepairs_(16,_8) <= 0
_C3639: edgepairs_((16,_17),_(7,_8)) + edgepairs_((16,_17),_(8,_9))
 - nodepairs_(16,_8) - nodepairs_(17,_8) <= 0
_C364: __dummy <= 0
_C3640: edgepairs_((17,_18),_(7,_8)) + edgepairs_((17,_18),_(8,_9))
 - nodepairs_(17,_8) - nodepairs_(18,_8) <= 0
_C3641: edgepairs_((18,_19),_(7,_8)) + edgepairs_((18,_19),_(8,_9))
 - nodepairs_(18,_8) - nodepairs_(19,_8) <= 0
_C3642: edgepairs_((19,_20),_(7,_8)) + edgepairs_((19,_20),_(8,_9))
 - nodepairs_(19,_8) - nodepairs_(20,_8) <= 0
_C3643: edgepairs_((20,_21),_(7,_8)) + edgepairs_((20,_21),_(8,_9))
 - nodepairs_(20,_8) - nodepairs_(21,_8) <= 0
_C3644: edgepairs_((21,_22),_(7,_8)) + edgepairs_((21,_22),_(8,_9))
 - nodepairs_(21,_8) - nodepairs_(22,_8) <= 0
_C3645: edgepairs_((22,_23),_(7,_8)) + edgepairs_((22,_23),_(8,_9))
 - nodepairs_(22,_8) - nodepairs_(23,_8) <= 0
_C3646: edgepairs_((23,_24),_(7,_8)) + edgepairs_((23,_24),_(8,_9))
 - nodepairs_(23,_8) - nodepairs_(24,_8) <= 0
_C3647: edgepairs_((23,_25),_(7,_8)) + edgepairs_((23,_25),_(8,_9))
 - nodepairs_(23,_8) - nodepairs_(25,_8) <= 0
_C3648: - nodepairs_(26,_8) <= 0
_C3649: - nodepairs_(28,_8) <= 0
_C365: __dummy <= 0
_C3650: - nodepairs_(28,_8) <= 0
_C3651: edgepairs_((28,_30),_(7,_8)) + edgepairs_((28,_30),_(8,_9))
 - nodepairs_(28,_8) - nodepairs_(30,_8) <= 0
_C3652: edgepairs_((30,_31),_(7,_8)) + edgepairs_((30,_31),_(8,_9))
 - nodepairs_(30,_8) - nodepairs_(31,_8) <= 0
_C3653: edgepairs_((31,_32),_(7,_8)) + edgepairs_((31,_32),_(8,_9))
 - nodepairs_(31,_8) - nodepairs_(32,_8) <= 0
_C3654: edgepairs_((32,_33),_(7,_8)) + edgepairs_((32,_33),_(8,_9))
 - nodepairs_(32,_8) - nodepairs_(33,_8) <= 0
_C3655: edgepairs_((33,_34),_(7,_8)) + edgepairs_((33,_34),_(8,_9))
 - nodepairs_(33,_8) - nodepairs_(34,_8) <= 0
_C3656: edgepairs_((34,_35),_(7,_8)) + edgepairs_((34,_35),_(8,_9))
 - nodepairs_(34,_8) - nodepairs_(35,_8) <= 0
_C3657: edgepairs_((35,_36),_(7,_8)) + edgepairs_((35,_36),_(8,_9))
 - nodepairs_(35,_8) - nodepairs_(36,_8) <= 0
_C3658: edgepairs_((36,_37),_(7,_8)) + edgepairs_((36,_37),_(8,_9))
 - nodepairs_(36,_8) - nodepairs_(37,_8) <= 0
_C3659: edgepairs_((37,_38),_(7,_8)) + edgepairs_((37,_38),_(8,_9))
 - nodepairs_(37,_8) - nodepairs_(38,_8) <= 0
_C366: __dummy <= 0
_C3660: edgepairs_((38,_39),_(7,_8)) + edgepairs_((38,_39),_(8,_9))
 - nodepairs_(38,_8) - nodepairs_(39,_8) <= 0
_C3661: edgepairs_((39,_40),_(7,_8)) + edgepairs_((39,_40),_(8,_9))
 - nodepairs_(39,_8) - nodepairs_(40,_8) <= 0
_C3662: edgepairs_((40,_41),_(7,_8)) + edgepairs_((40,_41),_(8,_9))
 - nodepairs_(40,_8) - nodepairs_(41,_8) <= 0
_C3663: edgepairs_((40,_42),_(7,_8)) + edgepairs_((40,_42),_(8,_9))
 - nodepairs_(40,_8) - nodepairs_(42,_8) <= 0
_C3664: - nodepairs_(44,_8) <= 0
_C3665: - nodepairs_(44,_8) <= 0
_C3666: edgepairs_((44,_46),_(7,_8)) + edgepairs_((44,_46),_(8,_9))
 - nodepairs_(44,_8) - nodepairs_(46,_8) <= 0
_C3667: edgepairs_((46,_47),_(7,_8)) + edgepairs_((46,_47),_(8,_9))
 - nodepairs_(46,_8) - nodepairs_(47,_8) <= 0
_C3668: edgepairs_((47,_48),_(7,_8)) + edgepairs_((47,_48),_(8,_9))
 - nodepairs_(47,_8) - nodepairs_(48,_8) <= 0
_C3669: edgepairs_((48,_49),_(7,_8)) + edgepairs_((48,_49),_(8,_9))
 - nodepairs_(48,_8) - nodepairs_(49,_8) <= 0
_C367: __dummy <= 0
_C3670: edgepairs_((49,_50),_(7,_8)) + edgepairs_((49,_50),_(8,_9))
 - nodepairs_(49,_8) - nodepairs_(50,_8) <= 0
_C3671: edgepairs_((50,_51),_(7,_8)) + edgepairs_((50,_51),_(8,_9))
 - nodepairs_(50,_8) - nodepairs_(51,_8) <= 0
_C3672: edgepairs_((51,_52),_(7,_8)) + edgepairs_((51,_52),_(8,_9))
 - nodepairs_(51,_8) - nodepairs_(52,_8) <= 0
_C3673: edgepairs_((52,_53),_(7,_8)) + edgepairs_((52,_53),_(8,_9))
 - nodepairs_(52,_8) - nodepairs_(53,_8) <= 0
_C3674: edgepairs_((53,_54),_(7,_8)) + edgepairs_((53,_54),_(8,_9))
 - nodepairs_(53,_8) - nodepairs_(54,_8) <= 0
_C3675: edgepairs_((0,_1),_(8,_9)) + edgepairs_((0,_1),_(9,_10))
 - nodepairs_(0,_9) - nodepairs_(1,_9) <= 0
_C3676: edgepairs_((0,_26),_(8,_9)) + edgepairs_((0,_26),_(9,_10))
 - nodepairs_(0,_9) - nodepairs_(26,_9) <= 0
_C3677: - nodepairs_(0,_9) <= 0
_C3678: - nodepairs_(1,_9) <= 0
_C3679: - nodepairs_(3,_9) <= 0
_C368: edgepairs_((1,_2),_(41,_42)) + edgepairs_((2,_3),_(41,_42))
 - nodepairs_(2,_41) <= 0
_C3680: - nodepairs_(3,_9) <= 0
_C3681: edgepairs_((3,_5),_(8,_9)) + edgepairs_((3,_5),_(9,_10))
 - nodepairs_(3,_9) - nodepairs_(5,_9) <= 0
_C3682: edgepairs_((5,_6),_(8,_9)) + edgepairs_((5,_6),_(9,_10))
 - nodepairs_(5,_9) - nodepairs_(6,_9) <= 0
_C3683: edgepairs_((6,_7),_(8,_9)) + edgepairs_((6,_7),_(9,_10))
 - nodepairs_(6,_9) - nodepairs_(7,_9) <= 0
_C3684: edgepairs_((7,_8),_(8,_9)) + edgepairs_((7,_8),_(9,_10))
 - nodepairs_(7,_9) - nodepairs_(8,_9) <= 0
_C3685: edgepairs_((8,_9),_(8,_9)) + edgepairs_((8,_9),_(9,_10))
 - nodepairs_(8,_9) - nodepairs_(9,_9) <= 0
_C3686: edgepairs_((9,_10),_(8,_9)) + edgepairs_((9,_10),_(9,_10))
 - nodepairs_(10,_9) - nodepairs_(9,_9) <= 0
_C3687: edgepairs_((10,_11),_(8,_9)) + edgepairs_((10,_11),_(9,_10))
 - nodepairs_(10,_9) - nodepairs_(11,_9) <= 0
_C3688: edgepairs_((11,_12),_(8,_9)) + edgepairs_((11,_12),_(9,_10))
 - nodepairs_(11,_9) - nodepairs_(12,_9) <= 0
_C3689: edgepairs_((12,_13),_(8,_9)) + edgepairs_((12,_13),_(9,_10))
 - nodepairs_(12,_9) - nodepairs_(13,_9) <= 0
_C369: edgepairs_((1,_2),_(42,_43)) + edgepairs_((2,_3),_(42,_43))
 - nodepairs_(2,_43) <= 0
_C3690: edgepairs_((13,_14),_(8,_9)) + edgepairs_((13,_14),_(9,_10))
 - nodepairs_(13,_9) - nodepairs_(14,_9) <= 0
_C3691: edgepairs_((14,_15),_(8,_9)) + edgepairs_((14,_15),_(9,_10))
 - nodepairs_(14,_9) - nodepairs_(15,_9) <= 0
_C3692: edgepairs_((15,_16),_(8,_9)) + edgepairs_((15,_16),_(9,_10))
 - nodepairs_(15,_9) - nodepairs_(16,_9) <= 0
_C3693: edgepairs_((16,_17),_(8,_9)) + edgepairs_((16,_17),_(9,_10))
 - nodepairs_(16,_9) - nodepairs_(17,_9) <= 0
_C3694: edgepairs_((17,_18),_(8,_9)) + edgepairs_((17,_18),_(9,_10))
 - nodepairs_(17,_9) - nodepairs_(18,_9) <= 0
_C3695: edgepairs_((18,_19),_(8,_9)) + edgepairs_((18,_19),_(9,_10))
 - nodepairs_(18,_9) - nodepairs_(19,_9) <= 0
_C3696: edgepairs_((19,_20),_(8,_9)) + edgepairs_((19,_20),_(9,_10))
 - nodepairs_(19,_9) - nodepairs_(20,_9) <= 0
_C3697: edgepairs_((20,_21),_(8,_9)) + edgepairs_((20,_21),_(9,_10))
 - nodepairs_(20,_9) - nodepairs_(21,_9) <= 0
_C3698: edgepairs_((21,_22),_(8,_9)) + edgepairs_((21,_22),_(9,_10))
 - nodepairs_(21,_9) - nodepairs_(22,_9) <= 0
_C3699: edgepairs_((22,_23),_(8,_9)) + edgepairs_((22,_23),_(9,_10))
 - nodepairs_(22,_9) - nodepairs_(23,_9) <= 0
_C37: nodepairs_(36,_0) + nodepairs_(36,_1) + nodepairs_(36,_10)
 + nodepairs_(36,_11) + nodepairs_(36,_12) + nodepairs_(36,_13)
 + nodepairs_(36,_14) + nodepairs_(36,_15) + nodepairs_(36,_16)
 + nodepairs_(36,_17) + nodepairs_(36,_19) + nodepairs_(36,_21)
 + nodepairs_(36,_22) + nodepairs_(36,_23) + nodepairs_(36,_24)
 + nodepairs_(36,_25) + nodepairs_(36,_26) + nodepairs_(36,_27)
 + nodepairs_(36,_28) + nodepairs_(36,_29) + nodepairs_(36,_3)
 + nodepairs_(36,_30) + nodepairs_(36,_31) + nodepairs_(36,_32)
 + nodepairs_(36,_33) + nodepairs_(36,_34) + nodepairs_(36,_35)
 + nodepairs_(36,_36) + nodepairs_(36,_37) + nodepairs_(36,_38)
 + nodepairs_(36,_39) + nodepairs_(36,_40) + nodepairs_(36,_42)
 + nodepairs_(36,_44) + nodepairs_(36,_45) + nodepairs_(36,_46)
 + nodepairs_(36,_47) + nodepairs_(36,_48) + nodepairs_(36,_49)
 + nodepairs_(36,_5) + nodepairs_(36,_50) + nodepairs_(36,_51)
 + nodepairs_(36,_52) + nodepairs_(36,_53) + nodepairs_(36,_54)
 + nodepairs_(36,_6) + nodepairs_(36,_7) + nodepairs_(36,_8)
 + nodepairs_(36,_9) <= 1
_C370: __dummy <= 0
_C3700: edgepairs_((23,_24),_(8,_9)) + edgepairs_((23,_24),_(9,_10))
 - nodepairs_(23,_9) - nodepairs_(24,_9) <= 0
_C3701: edgepairs_((23,_25),_(8,_9)) + edgepairs_((23,_25),_(9,_10))
 - nodepairs_(23,_9) - nodepairs_(25,_9) <= 0
_C3702: - nodepairs_(26,_9) <= 0
_C3703: - nodepairs_(28,_9) <= 0
_C3704: - nodepairs_(28,_9) <= 0
_C3705: edgepairs_((28,_30),_(8,_9)) + edgepairs_((28,_30),_(9,_10))
 - nodepairs_(28,_9) - nodepairs_(30,_9) <= 0
_C3706: edgepairs_((30,_31),_(8,_9)) + edgepairs_((30,_31),_(9,_10))
 - nodepairs_(30,_9) - nodepairs_(31,_9) <= 0
_C3707: edgepairs_((31,_32),_(8,_9)) + edgepairs_((31,_32),_(9,_10))
 - nodepairs_(31,_9) - nodepairs_(32,_9) <= 0
_C3708: edgepairs_((32,_33),_(8,_9)) + edgepairs_((32,_33),_(9,_10))
 - nodepairs_(32,_9) - nodepairs_(33,_9) <= 0
_C3709: edgepairs_((33,_34),_(8,_9)) + edgepairs_((33,_34),_(9,_10))
 - nodepairs_(33,_9) - nodepairs_(34,_9) <= 0
_C371: __dummy <= 0
_C3710: edgepairs_((34,_35),_(8,_9)) + edgepairs_((34,_35),_(9,_10))
 - nodepairs_(34,_9) - nodepairs_(35,_9) <= 0
_C3711: edgepairs_((35,_36),_(8,_9)) + edgepairs_((35,_36),_(9,_10))
 - nodepairs_(35,_9) - nodepairs_(36,_9) <= 0
_C3712: edgepairs_((36,_37),_(8,_9)) + edgepairs_((36,_37),_(9,_10))
 - nodepairs_(36,_9) - nodepairs_(37,_9) <= 0
_C3713: edgepairs_((37,_38),_(8,_9)) + edgepairs_((37,_38),_(9,_10))
 - nodepairs_(37,_9) - nodepairs_(38,_9) <= 0
_C3714: edgepairs_((38,_39),_(8,_9)) + edgepairs_((38,_39),_(9,_10))
 - nodepairs_(38,_9) - nodepairs_(39,_9) <= 0
_C3715: edgepairs_((39,_40),_(8,_9)) + edgepairs_((39,_40),_(9,_10))
 - nodepairs_(39,_9) - nodepairs_(40,_9) <= 0
_C3716: edgepairs_((40,_41),_(8,_9)) + edgepairs_((40,_41),_(9,_10))
 - nodepairs_(40,_9) - nodepairs_(41,_9) <= 0
_C3717: edgepairs_((40,_42),_(8,_9)) + edgepairs_((40,_42),_(9,_10))
 - nodepairs_(40,_9) - nodepairs_(42,_9) <= 0
_C3718: - nodepairs_(44,_9) <= 0
_C3719: - nodepairs_(44,_9) <= 0
_C372: __dummy <= 0
_C3720: edgepairs_((44,_46),_(8,_9)) + edgepairs_((44,_46),_(9,_10))
 - nodepairs_(44,_9) - nodepairs_(46,_9) <= 0
_C3721: edgepairs_((46,_47),_(8,_9)) + edgepairs_((46,_47),_(9,_10))
 - nodepairs_(46,_9) - nodepairs_(47,_9) <= 0
_C3722: edgepairs_((47,_48),_(8,_9)) + edgepairs_((47,_48),_(9,_10))
 - nodepairs_(47,_9) - nodepairs_(48,_9) <= 0
_C3723: edgepairs_((48,_49),_(8,_9)) + edgepairs_((48,_49),_(9,_10))
 - nodepairs_(48,_9) - nodepairs_(49,_9) <= 0
_C3724: edgepairs_((49,_50),_(8,_9)) + edgepairs_((49,_50),_(9,_10))
 - nodepairs_(49,_9) - nodepairs_(50,_9) <= 0
_C3725: edgepairs_((50,_51),_(8,_9)) + edgepairs_((50,_51),_(9,_10))
 - nodepairs_(50,_9) - nodepairs_(51,_9) <= 0
_C3726: edgepairs_((51,_52),_(8,_9)) + edgepairs_((51,_52),_(9,_10))
 - nodepairs_(51,_9) - nodepairs_(52,_9) <= 0
_C3727: edgepairs_((52,_53),_(8,_9)) + edgepairs_((52,_53),_(9,_10))
 - nodepairs_(52,_9) - nodepairs_(53,_9) <= 0
_C3728: edgepairs_((53,_54),_(8,_9)) + edgepairs_((53,_54),_(9,_10))
 - nodepairs_(53,_9) - nodepairs_(54,_9) <= 0
_C3729: edgepairs_((0,_1),_(10,_11)) + edgepairs_((0,_1),_(9,_10))
 - nodepairs_(0,_10) - nodepairs_(1,_10) <= 0
_C373: __dummy <= 0
_C3730: edgepairs_((0,_26),_(10,_11)) + edgepairs_((0,_26),_(9,_10))
 - nodepairs_(0,_10) - nodepairs_(26,_10) <= 0
_C3731: - nodepairs_(0,_10) <= 0
_C3732: - nodepairs_(1,_10) <= 0
_C3733: - nodepairs_(3,_10) <= 0
_C3734: - nodepairs_(3,_10) <= 0
_C3735: edgepairs_((3,_5),_(10,_11)) + edgepairs_((3,_5),_(9,_10))
 - nodepairs_(3,_10) - nodepairs_(5,_10) <= 0
_C3736: edgepairs_((5,_6),_(10,_11)) + edgepairs_((5,_6),_(9,_10))
 - nodepairs_(5,_10) - nodepairs_(6,_10) <= 0
_C3737: edgepairs_((6,_7),_(10,_11)) + edgepairs_((6,_7),_(9,_10))
 - nodepairs_(6,_10) - nodepairs_(7,_10) <= 0
_C3738: edgepairs_((7,_8),_(10,_11)) + edgepairs_((7,_8),_(9,_10))
 - nodepairs_(7,_10) - nodepairs_(8,_10) <= 0
_C3739: edgepairs_((8,_9),_(10,_11)) + edgepairs_((8,_9),_(9,_10))
 - nodepairs_(8,_10) - nodepairs_(9,_10) <= 0
_C374: __dummy <= 0
_C3740: edgepairs_((9,_10),_(10,_11)) + edgepairs_((9,_10),_(9,_10))
 - nodepairs_(10,_10) - nodepairs_(9,_10) <= 0
_C3741: edgepairs_((10,_11),_(10,_11)) + edgepairs_((10,_11),_(9,_10))
 - nodepairs_(10,_10) - nodepairs_(11,_10) <= 0
_C3742: edgepairs_((11,_12),_(10,_11)) + edgepairs_((11,_12),_(9,_10))
 - nodepairs_(11,_10) - nodepairs_(12,_10) <= 0
_C3743: edgepairs_((12,_13),_(10,_11)) + edgepairs_((12,_13),_(9,_10))
 - nodepairs_(12,_10) - nodepairs_(13,_10) <= 0
_C3744: edgepairs_((13,_14),_(10,_11)) + edgepairs_((13,_14),_(9,_10))
 - nodepairs_(13,_10) - nodepairs_(14,_10) <= 0
_C3745: edgepairs_((14,_15),_(10,_11)) + edgepairs_((14,_15),_(9,_10))
 - nodepairs_(14,_10) - nodepairs_(15,_10) <= 0
_C3746: edgepairs_((15,_16),_(10,_11)) + edgepairs_((15,_16),_(9,_10))
 - nodepairs_(15,_10) - nodepairs_(16,_10) <= 0
_C3747: edgepairs_((16,_17),_(10,_11)) + edgepairs_((16,_17),_(9,_10))
 - nodepairs_(16,_10) - nodepairs_(17,_10) <= 0
_C3748: edgepairs_((17,_18),_(10,_11)) + edgepairs_((17,_18),_(9,_10))
 - nodepairs_(17,_10) - nodepairs_(18,_10) <= 0
_C3749: edgepairs_((18,_19),_(10,_11)) + edgepairs_((18,_19),_(9,_10))
 - nodepairs_(18,_10) - nodepairs_(19,_10) <= 0
_C375: __dummy <= 0
_C3750: edgepairs_((19,_20),_(10,_11)) + edgepairs_((19,_20),_(9,_10))
 - nodepairs_(19,_10) - nodepairs_(20,_10) <= 0
_C3751: edgepairs_((20,_21),_(10,_11)) + edgepairs_((20,_21),_(9,_10))
 - nodepairs_(20,_10) - nodepairs_(21,_10) <= 0
_C3752: edgepairs_((21,_22),_(10,_11)) + edgepairs_((21,_22),_(9,_10))
 - nodepairs_(21,_10) - nodepairs_(22,_10) <= 0
_C3753: edgepairs_((22,_23),_(10,_11)) + edgepairs_((22,_23),_(9,_10))
 - nodepairs_(22,_10) - nodepairs_(23,_10) <= 0
_C3754: edgepairs_((23,_24),_(10,_11)) + edgepairs_((23,_24),_(9,_10))
 - nodepairs_(23,_10) - nodepairs_(24,_10) <= 0
_C3755: edgepairs_((23,_25),_(10,_11)) + edgepairs_((23,_25),_(9,_10))
 - nodepairs_(23,_10) - nodepairs_(25,_10) <= 0
_C3756: - nodepairs_(26,_10) <= 0
_C3757: - nodepairs_(28,_10) <= 0
_C3758: - nodepairs_(28,_10) <= 0
_C3759: edgepairs_((28,_30),_(10,_11)) + edgepairs_((28,_30),_(9,_10))
 - nodepairs_(28,_10) - nodepairs_(30,_10) <= 0
_C376: __dummy <= 0
_C3760: edgepairs_((30,_31),_(10,_11)) + edgepairs_((30,_31),_(9,_10))
 - nodepairs_(30,_10) - nodepairs_(31,_10) <= 0
_C3761: edgepairs_((31,_32),_(10,_11)) + edgepairs_((31,_32),_(9,_10))
 - nodepairs_(31,_10) - nodepairs_(32,_10) <= 0
_C3762: edgepairs_((32,_33),_(10,_11)) + edgepairs_((32,_33),_(9,_10))
 - nodepairs_(32,_10) - nodepairs_(33,_10) <= 0
_C3763: edgepairs_((33,_34),_(10,_11)) + edgepairs_((33,_34),_(9,_10))
 - nodepairs_(33,_10) - nodepairs_(34,_10) <= 0
_C3764: edgepairs_((34,_35),_(10,_11)) + edgepairs_((34,_35),_(9,_10))
 - nodepairs_(34,_10) - nodepairs_(35,_10) <= 0
_C3765: edgepairs_((35,_36),_(10,_11)) + edgepairs_((35,_36),_(9,_10))
 - nodepairs_(35,_10) - nodepairs_(36,_10) <= 0
_C3766: edgepairs_((36,_37),_(10,_11)) + edgepairs_((36,_37),_(9,_10))
 - nodepairs_(36,_10) - nodepairs_(37,_10) <= 0
_C3767: edgepairs_((37,_38),_(10,_11)) + edgepairs_((37,_38),_(9,_10))
 - nodepairs_(37,_10) - nodepairs_(38,_10) <= 0
_C3768: edgepairs_((38,_39),_(10,_11)) + edgepairs_((38,_39),_(9,_10))
 - nodepairs_(38,_10) - nodepairs_(39,_10) <= 0
_C3769: edgepairs_((39,_40),_(10,_11)) + edgepairs_((39,_40),_(9,_10))
 - nodepairs_(39,_10) - nodepairs_(40,_10) <= 0
_C377: __dummy <= 0
_C3770: edgepairs_((40,_41),_(10,_11)) + edgepairs_((40,_41),_(9,_10))
 - nodepairs_(40,_10) - nodepairs_(41,_10) <= 0
_C3771: edgepairs_((40,_42),_(10,_11)) + edgepairs_((40,_42),_(9,_10))
 - nodepairs_(40,_10) - nodepairs_(42,_10) <= 0
_C3772: - nodepairs_(44,_10) <= 0
_C3773: - nodepairs_(44,_10) <= 0
_C3774: edgepairs_((44,_46),_(10,_11)) + edgepairs_((44,_46),_(9,_10))
 - nodepairs_(44,_10) - nodepairs_(46,_10) <= 0
_C3775: edgepairs_((46,_47),_(10,_11)) + edgepairs_((46,_47),_(9,_10))
 - nodepairs_(46,_10) - nodepairs_(47,_10) <= 0
_C3776: edgepairs_((47,_48),_(10,_11)) + edgepairs_((47,_48),_(9,_10))
 - nodepairs_(47,_10) - nodepairs_(48,_10) <= 0
_C3777: edgepairs_((48,_49),_(10,_11)) + edgepairs_((48,_49),_(9,_10))
 - nodepairs_(48,_10) - nodepairs_(49,_10) <= 0
_C3778: edgepairs_((49,_50),_(10,_11)) + edgepairs_((49,_50),_(9,_10))
 - nodepairs_(49,_10) - nodepairs_(50,_10) <= 0
_C3779: edgepairs_((50,_51),_(10,_11)) + edgepairs_((50,_51),_(9,_10))
 - nodepairs_(50,_10) - nodepairs_(51,_10) <= 0
_C378: __dummy <= 0
_C3780: edgepairs_((51,_52),_(10,_11)) + edgepairs_((51,_52),_(9,_10))
 - nodepairs_(51,_10) - nodepairs_(52,_10) <= 0
_C3781: edgepairs_((52,_53),_(10,_11)) + edgepairs_((52,_53),_(9,_10))
 - nodepairs_(52,_10) - nodepairs_(53,_10) <= 0
_C3782: edgepairs_((53,_54),_(10,_11)) + edgepairs_((53,_54),_(9,_10))
 - nodepairs_(53,_10) - nodepairs_(54,_10) <= 0
_C3783: edgepairs_((0,_1),_(10,_11)) + edgepairs_((0,_1),_(11,_12))
 - nodepairs_(0,_11) - nodepairs_(1,_11) <= 0
_C3784: edgepairs_((0,_26),_(10,_11)) + edgepairs_((0,_26),_(11,_12))
 - nodepairs_(0,_11) - nodepairs_(26,_11) <= 0
_C3785: - nodepairs_(0,_11) <= 0
_C3786: - nodepairs_(1,_11) <= 0
_C3787: - nodepairs_(3,_11) <= 0
_C3788: - nodepairs_(3,_11) <= 0
_C3789: edgepairs_((3,_5),_(10,_11)) + edgepairs_((3,_5),_(11,_12))
 - nodepairs_(3,_11) - nodepairs_(5,_11) <= 0
_C379: __dummy <= 0
_C3790: edgepairs_((5,_6),_(10,_11)) + edgepairs_((5,_6),_(11,_12))
 - nodepairs_(5,_11) - nodepairs_(6,_11) <= 0
_C3791: edgepairs_((6,_7),_(10,_11)) + edgepairs_((6,_7),_(11,_12))
 - nodepairs_(6,_11) - nodepairs_(7,_11) <= 0
_C3792: edgepairs_((7,_8),_(10,_11)) + edgepairs_((7,_8),_(11,_12))
 - nodepairs_(7,_11) - nodepairs_(8,_11) <= 0
_C3793: edgepairs_((8,_9),_(10,_11)) + edgepairs_((8,_9),_(11,_12))
 - nodepairs_(8,_11) - nodepairs_(9,_11) <= 0
_C3794: edgepairs_((9,_10),_(10,_11)) + edgepairs_((9,_10),_(11,_12))
 - nodepairs_(10,_11) - nodepairs_(9,_11) <= 0
_C3795: edgepairs_((10,_11),_(10,_11)) + edgepairs_((10,_11),_(11,_12))
 - nodepairs_(10,_11) - nodepairs_(11,_11) <= 0
_C3796: edgepairs_((11,_12),_(10,_11)) + edgepairs_((11,_12),_(11,_12))
 - nodepairs_(11,_11) - nodepairs_(12,_11) <= 0
_C3797: edgepairs_((12,_13),_(10,_11)) + edgepairs_((12,_13),_(11,_12))
 - nodepairs_(12,_11) - nodepairs_(13,_11) <= 0
_C3798: edgepairs_((13,_14),_(10,_11)) + edgepairs_((13,_14),_(11,_12))
 - nodepairs_(13,_11) - nodepairs_(14,_11) <= 0
_C3799: edgepairs_((14,_15),_(10,_11)) + edgepairs_((14,_15),_(11,_12))
 - nodepairs_(14,_11) - nodepairs_(15,_11) <= 0
_C38: nodepairs_(37,_0) + nodepairs_(37,_1) + nodepairs_(37,_10)
 + nodepairs_(37,_11) + nodepairs_(37,_12) + nodepairs_(37,_13)
 + nodepairs_(37,_14) + nodepairs_(37,_15) + nodepairs_(37,_16)
 + nodepairs_(37,_17) + nodepairs_(37,_19) + nodepairs_(37,_21)
 + nodepairs_(37,_22) + nodepairs_(37,_23) + nodepairs_(37,_24)
 + nodepairs_(37,_25) + nodepairs_(37,_26) + nodepairs_(37,_27)
 + nodepairs_(37,_28) + nodepairs_(37,_29) + nodepairs_(37,_3)
 + nodepairs_(37,_30) + nodepairs_(37,_31) + nodepairs_(37,_32)
 + nodepairs_(37,_33) + nodepairs_(37,_34) + nodepairs_(37,_35)
 + nodepairs_(37,_36) + nodepairs_(37,_37) + nodepairs_(37,_38)
 + nodepairs_(37,_39) + nodepairs_(37,_40) + nodepairs_(37,_42)
 + nodepairs_(37,_44) + nodepairs_(37,_45) + nodepairs_(37,_46)
 + nodepairs_(37,_47) + nodepairs_(37,_48) + nodepairs_(37,_49)
 + nodepairs_(37,_5) + nodepairs_(37,_50) + nodepairs_(37,_51)
 + nodepairs_(37,_52) + nodepairs_(37,_53) + nodepairs_(37,_54)
 + nodepairs_(37,_6) + nodepairs_(37,_7) + nodepairs_(37,_8)
 + nodepairs_(37,_9) <= 1
_C380: __dummy <= 0
_C3800: edgepairs_((15,_16),_(10,_11)) + edgepairs_((15,_16),_(11,_12))
 - nodepairs_(15,_11) - nodepairs_(16,_11) <= 0
_C3801: edgepairs_((16,_17),_(10,_11)) + edgepairs_((16,_17),_(11,_12))
 - nodepairs_(16,_11) - nodepairs_(17,_11) <= 0
_C3802: edgepairs_((17,_18),_(10,_11)) + edgepairs_((17,_18),_(11,_12))
 - nodepairs_(17,_11) - nodepairs_(18,_11) <= 0
_C3803: edgepairs_((18,_19),_(10,_11)) + edgepairs_((18,_19),_(11,_12))
 - nodepairs_(18,_11) - nodepairs_(19,_11) <= 0
_C3804: edgepairs_((19,_20),_(10,_11)) + edgepairs_((19,_20),_(11,_12))
 - nodepairs_(19,_11) - nodepairs_(20,_11) <= 0
_C3805: edgepairs_((20,_21),_(10,_11)) + edgepairs_((20,_21),_(11,_12))
 - nodepairs_(20,_11) - nodepairs_(21,_11) <= 0
_C3806: edgepairs_((21,_22),_(10,_11)) + edgepairs_((21,_22),_(11,_12))
 - nodepairs_(21,_11) - nodepairs_(22,_11) <= 0
_C3807: edgepairs_((22,_23),_(10,_11)) + edgepairs_((22,_23),_(11,_12))
 - nodepairs_(22,_11) - nodepairs_(23,_11) <= 0
_C3808: edgepairs_((23,_24),_(10,_11)) + edgepairs_((23,_24),_(11,_12))
 - nodepairs_(23,_11) - nodepairs_(24,_11) <= 0
_C3809: edgepairs_((23,_25),_(10,_11)) + edgepairs_((23,_25),_(11,_12))
 - nodepairs_(23,_11) - nodepairs_(25,_11) <= 0
_C381: edgepairs_((3,_5),_(0,_1)) - nodepairs_(3,_0) - nodepairs_(3,_1) <= 0
_C3810: - nodepairs_(26,_11) <= 0
_C3811: - nodepairs_(28,_11) <= 0
_C3812: - nodepairs_(28,_11) <= 0
_C3813: edgepairs_((28,_30),_(10,_11)) + edgepairs_((28,_30),_(11,_12))
 - nodepairs_(28,_11) - nodepairs_(30,_11) <= 0
_C3814: edgepairs_((30,_31),_(10,_11)) + edgepairs_((30,_31),_(11,_12))
 - nodepairs_(30,_11) - nodepairs_(31,_11) <= 0
_C3815: edgepairs_((31,_32),_(10,_11)) + edgepairs_((31,_32),_(11,_12))
 - nodepairs_(31,_11) - nodepairs_(32,_11) <= 0
_C3816: edgepairs_((32,_33),_(10,_11)) + edgepairs_((32,_33),_(11,_12))
 - nodepairs_(32,_11) - nodepairs_(33,_11) <= 0
_C3817: edgepairs_((33,_34),_(10,_11)) + edgepairs_((33,_34),_(11,_12))
 - nodepairs_(33,_11) - nodepairs_(34,_11) <= 0
_C3818: edgepairs_((34,_35),_(10,_11)) + edgepairs_((34,_35),_(11,_12))
 - nodepairs_(34,_11) - nodepairs_(35,_11) <= 0
_C3819: edgepairs_((35,_36),_(10,_11)) + edgepairs_((35,_36),_(11,_12))
 - nodepairs_(35,_11) - nodepairs_(36,_11) <= 0
_C382: edgepairs_((3,_5),_(0,_17)) - nodepairs_(3,_0) - nodepairs_(3,_17) <= 0
_C3820: edgepairs_((36,_37),_(10,_11)) + edgepairs_((36,_37),_(11,_12))
 - nodepairs_(36,_11) - nodepairs_(37,_11) <= 0
_C3821: edgepairs_((37,_38),_(10,_11)) + edgepairs_((37,_38),_(11,_12))
 - nodepairs_(37,_11) - nodepairs_(38,_11) <= 0
_C3822: edgepairs_((38,_39),_(10,_11)) + edgepairs_((38,_39),_(11,_12))
 - nodepairs_(38,_11) - nodepairs_(39,_11) <= 0
_C3823: edgepairs_((39,_40),_(10,_11)) + edgepairs_((39,_40),_(11,_12))
 - nodepairs_(39,_11) - nodepairs_(40,_11) <= 0
_C3824: edgepairs_((40,_41),_(10,_11)) + edgepairs_((40,_41),_(11,_12))
 - nodepairs_(40,_11) - nodepairs_(41,_11) <= 0
_C3825: edgepairs_((40,_42),_(10,_11)) + edgepairs_((40,_42),_(11,_12))
 - nodepairs_(40,_11) - nodepairs_(42,_11) <= 0
_C3826: - nodepairs_(44,_11) <= 0
_C3827: - nodepairs_(44,_11) <= 0
_C3828: edgepairs_((44,_46),_(10,_11)) + edgepairs_((44,_46),_(11,_12))
 - nodepairs_(44,_11) - nodepairs_(46,_11) <= 0
_C3829: edgepairs_((46,_47),_(10,_11)) + edgepairs_((46,_47),_(11,_12))
 - nodepairs_(46,_11) - nodepairs_(47,_11) <= 0
_C383: edgepairs_((2,_3),_(0,_41)) + edgepairs_((3,_4),_(0,_41))
 - nodepairs_(3,_0) <= 0
_C3830: edgepairs_((47,_48),_(10,_11)) + edgepairs_((47,_48),_(11,_12))
 - nodepairs_(47,_11) - nodepairs_(48,_11) <= 0
_C3831: edgepairs_((48,_49),_(10,_11)) + edgepairs_((48,_49),_(11,_12))
 - nodepairs_(48,_11) - nodepairs_(49,_11) <= 0
_C3832: edgepairs_((49,_50),_(10,_11)) + edgepairs_((49,_50),_(11,_12))
 - nodepairs_(49,_11) - nodepairs_(50,_11) <= 0
_C3833: edgepairs_((50,_51),_(10,_11)) + edgepairs_((50,_51),_(11,_12))
 - nodepairs_(50,_11) - nodepairs_(51,_11) <= 0
_C3834: edgepairs_((51,_52),_(10,_11)) + edgepairs_((51,_52),_(11,_12))
 - nodepairs_(51,_11) - nodepairs_(52,_11) <= 0
_C3835: edgepairs_((52,_53),_(10,_11)) + edgepairs_((52,_53),_(11,_12))
 - nodepairs_(52,_11) - nodepairs_(53,_11) <= 0
_C3836: edgepairs_((53,_54),_(10,_11)) + edgepairs_((53,_54),_(11,_12))
 - nodepairs_(53,_11) - nodepairs_(54,_11) <= 0
_C3837: edgepairs_((0,_1),_(11,_12)) + edgepairs_((0,_1),_(12,_13))
 - nodepairs_(0,_12) - nodepairs_(1,_12) <= 0
_C3838: edgepairs_((0,_26),_(11,_12)) + edgepairs_((0,_26),_(12,_13))
 - nodepairs_(0,_12) - nodepairs_(26,_12) <= 0
_C3839: - nodepairs_(0,_12) <= 0
_C384: edgepairs_((2,_3),_(1,_2)) + edgepairs_((3,_4),_(1,_2))
 - nodepairs_(3,_1) <= 0
_C3840: - nodepairs_(1,_12) <= 0
_C3841: - nodepairs_(3,_12) <= 0
_C3842: - nodepairs_(3,_12) <= 0
_C3843: edgepairs_((3,_5),_(11,_12)) + edgepairs_((3,_5),_(12,_13))
 - nodepairs_(3,_12) - nodepairs_(5,_12) <= 0
_C3844: edgepairs_((5,_6),_(11,_12)) + edgepairs_((5,_6),_(12,_13))
 - nodepairs_(5,_12) - nodepairs_(6,_12) <= 0
_C3845: edgepairs_((6,_7),_(11,_12)) + edgepairs_((6,_7),_(12,_13))
 - nodepairs_(6,_12) - nodepairs_(7,_12) <= 0
_C3846: edgepairs_((7,_8),_(11,_12)) + edgepairs_((7,_8),_(12,_13))
 - nodepairs_(7,_12) - nodepairs_(8,_12) <= 0
_C3847: edgepairs_((8,_9),_(11,_12)) + edgepairs_((8,_9),_(12,_13))
 - nodepairs_(8,_12) - nodepairs_(9,_12) <= 0
_C3848: edgepairs_((9,_10),_(11,_12)) + edgepairs_((9,_10),_(12,_13))
 - nodepairs_(10,_12) - nodepairs_(9,_12) <= 0
_C3849: edgepairs_((10,_11),_(11,_12)) + edgepairs_((10,_11),_(12,_13))
 - nodepairs_(10,_12) - nodepairs_(11,_12) <= 0
_C385: edgepairs_((2,_3),_(2,_3)) + edgepairs_((3,_4),_(2,_3))
 - nodepairs_(3,_3) <= 0
_C3850: edgepairs_((11,_12),_(11,_12)) + edgepairs_((11,_12),_(12,_13))
 - nodepairs_(11,_12) - nodepairs_(12,_12) <= 0
_C3851: edgepairs_((12,_13),_(11,_12)) + edgepairs_((12,_13),_(12,_13))
 - nodepairs_(12,_12) - nodepairs_(13,_12) <= 0
_C3852: edgepairs_((13,_14),_(11,_12)) + edgepairs_((13,_14),_(12,_13))
 - nodepairs_(13,_12) - nodepairs_(14,_12) <= 0
_C3853: edgepairs_((14,_15),_(11,_12)) + edgepairs_((14,_15),_(12,_13))
 - nodepairs_(14,_12) - nodepairs_(15,_12) <= 0
_C3854: edgepairs_((15,_16),_(11,_12)) + edgepairs_((15,_16),_(12,_13))
 - nodepairs_(15,_12) - nodepairs_(16,_12) <= 0
_C3855: edgepairs_((16,_17),_(11,_12)) + edgepairs_((16,_17),_(12,_13))
 - nodepairs_(16,_12) - nodepairs_(17,_12) <= 0
_C3856: edgepairs_((17,_18),_(11,_12)) + edgepairs_((17,_18),_(12,_13))
 - nodepairs_(17,_12) - nodepairs_(18,_12) <= 0
_C3857: edgepairs_((18,_19),_(11,_12)) + edgepairs_((18,_19),_(12,_13))
 - nodepairs_(18,_12) - nodepairs_(19,_12) <= 0
_C3858: edgepairs_((19,_20),_(11,_12)) + edgepairs_((19,_20),_(12,_13))
 - nodepairs_(19,_12) - nodepairs_(20,_12) <= 0
_C3859: edgepairs_((20,_21),_(11,_12)) + edgepairs_((20,_21),_(12,_13))
 - nodepairs_(20,_12) - nodepairs_(21,_12) <= 0
_C386: edgepairs_((2,_3),_(3,_4)) + edgepairs_((3,_4),_(3,_4))
 - nodepairs_(3,_3) <= 0
_C3860: edgepairs_((21,_22),_(11,_12)) + edgepairs_((21,_22),_(12,_13))
 - nodepairs_(21,_12) - nodepairs_(22,_12) <= 0
_C3861: edgepairs_((22,_23),_(11,_12)) + edgepairs_((22,_23),_(12,_13))
 - nodepairs_(22,_12) - nodepairs_(23,_12) <= 0
_C3862: edgepairs_((23,_24),_(11,_12)) + edgepairs_((23,_24),_(12,_13))
 - nodepairs_(23,_12) - nodepairs_(24,_12) <= 0
_C3863: edgepairs_((23,_25),_(11,_12)) + edgepairs_((23,_25),_(12,_13))
 - nodepairs_(23,_12) - nodepairs_(25,_12) <= 0
_C3864: - nodepairs_(26,_12) <= 0
_C3865: - nodepairs_(28,_12) <= 0
_C3866: - nodepairs_(28,_12) <= 0
_C3867: edgepairs_((28,_30),_(11,_12)) + edgepairs_((28,_30),_(12,_13))
 - nodepairs_(28,_12) - nodepairs_(30,_12) <= 0
_C3868: edgepairs_((30,_31),_(11,_12)) + edgepairs_((30,_31),_(12,_13))
 - nodepairs_(30,_12) - nodepairs_(31,_12) <= 0
_C3869: edgepairs_((31,_32),_(11,_12)) + edgepairs_((31,_32),_(12,_13))
 - nodepairs_(31,_12) - nodepairs_(32,_12) <= 0
_C387: edgepairs_((3,_5),_(3,_5)) - nodepairs_(3,_3) - nodepairs_(3,_5) <= 0
_C3870: edgepairs_((32,_33),_(11,_12)) + edgepairs_((32,_33),_(12,_13))
 - nodepairs_(32,_12) - nodepairs_(33,_12) <= 0
_C3871: edgepairs_((33,_34),_(11,_12)) + edgepairs_((33,_34),_(12,_13))
 - nodepairs_(33,_12) - nodepairs_(34,_12) <= 0
_C3872: edgepairs_((34,_35),_(11,_12)) + edgepairs_((34,_35),_(12,_13))
 - nodepairs_(34,_12) - nodepairs_(35,_12) <= 0
_C3873: edgepairs_((35,_36),_(11,_12)) + edgepairs_((35,_36),_(12,_13))
 - nodepairs_(35,_12) - nodepairs_(36,_12) <= 0
_C3874: edgepairs_((36,_37),_(11,_12)) + edgepairs_((36,_37),_(12,_13))
 - nodepairs_(36,_12) - nodepairs_(37,_12) <= 0
_C3875: edgepairs_((37,_38),_(11,_12)) + edgepairs_((37,_38),_(12,_13))
 - nodepairs_(37,_12) - nodepairs_(38,_12) <= 0
_C3876: edgepairs_((38,_39),_(11,_12)) + edgepairs_((38,_39),_(12,_13))
 - nodepairs_(38,_12) - nodepairs_(39,_12) <= 0
_C3877: edgepairs_((39,_40),_(11,_12)) + edgepairs_((39,_40),_(12,_13))
 - nodepairs_(39,_12) - nodepairs_(40,_12) <= 0
_C3878: edgepairs_((40,_41),_(11,_12)) + edgepairs_((40,_41),_(12,_13))
 - nodepairs_(40,_12) - nodepairs_(41,_12) <= 0
_C3879: edgepairs_((40,_42),_(11,_12)) + edgepairs_((40,_42),_(12,_13))
 - nodepairs_(40,_12) - nodepairs_(42,_12) <= 0
_C388: edgepairs_((3,_5),_(5,_6)) - nodepairs_(3,_5) - nodepairs_(3,_6) <= 0
_C3880: - nodepairs_(44,_12) <= 0
_C3881: - nodepairs_(44,_12) <= 0
_C3882: edgepairs_((44,_46),_(11,_12)) + edgepairs_((44,_46),_(12,_13))
 - nodepairs_(44,_12) - nodepairs_(46,_12) <= 0
_C3883: edgepairs_((46,_47),_(11,_12)) + edgepairs_((46,_47),_(12,_13))
 - nodepairs_(46,_12) - nodepairs_(47,_12) <= 0
_C3884: edgepairs_((47,_48),_(11,_12)) + edgepairs_((47,_48),_(12,_13))
 - nodepairs_(47,_12) - nodepairs_(48,_12) <= 0
_C3885: edgepairs_((48,_49),_(11,_12)) + edgepairs_((48,_49),_(12,_13))
 - nodepairs_(48,_12) - nodepairs_(49,_12) <= 0
_C3886: edgepairs_((49,_50),_(11,_12)) + edgepairs_((49,_50),_(12,_13))
 - nodepairs_(49,_12) - nodepairs_(50,_12) <= 0
_C3887: edgepairs_((50,_51),_(11,_12)) + edgepairs_((50,_51),_(12,_13))
 - nodepairs_(50,_12) - nodepairs_(51,_12) <= 0
_C3888: edgepairs_((51,_52),_(11,_12)) + edgepairs_((51,_52),_(12,_13))
 - nodepairs_(51,_12) - nodepairs_(52,_12) <= 0
_C3889: edgepairs_((52,_53),_(11,_12)) + edgepairs_((52,_53),_(12,_13))
 - nodepairs_(52,_12) - nodepairs_(53,_12) <= 0
_C389: edgepairs_((3,_5),_(6,_7)) - nodepairs_(3,_6) - nodepairs_(3,_7) <= 0
_C3890: edgepairs_((53,_54),_(11,_12)) + edgepairs_((53,_54),_(12,_13))
 - nodepairs_(53,_12) - nodepairs_(54,_12) <= 0
_C3891: edgepairs_((0,_1),_(12,_13)) + edgepairs_((0,_1),_(13,_14))
 - nodepairs_(0,_13) - nodepairs_(1,_13) <= 0
_C3892: edgepairs_((0,_26),_(12,_13)) + edgepairs_((0,_26),_(13,_14))
 - nodepairs_(0,_13) - nodepairs_(26,_13) <= 0
_C3893: - nodepairs_(0,_13) <= 0
_C3894: - nodepairs_(1,_13) <= 0
_C3895: - nodepairs_(3,_13) <= 0
_C3896: - nodepairs_(3,_13) <= 0
_C3897: edgepairs_((3,_5),_(12,_13)) + edgepairs_((3,_5),_(13,_14))
 - nodepairs_(3,_13) - nodepairs_(5,_13) <= 0
_C3898: edgepairs_((5,_6),_(12,_13)) + edgepairs_((5,_6),_(13,_14))
 - nodepairs_(5,_13) - nodepairs_(6,_13) <= 0
_C3899: edgepairs_((6,_7),_(12,_13)) + edgepairs_((6,_7),_(13,_14))
 - nodepairs_(6,_13) - nodepairs_(7,_13) <= 0
_C39: nodepairs_(38,_0) + nodepairs_(38,_1) + nodepairs_(38,_10)
 + nodepairs_(38,_11) + nodepairs_(38,_12) + nodepairs_(38,_13)
 + nodepairs_(38,_14) + nodepairs_(38,_15) + nodepairs_(38,_16)
 + nodepairs_(38,_17) + nodepairs_(38,_19) + nodepairs_(38,_21)
 + nodepairs_(38,_22) + nodepairs_(38,_23) + nodepairs_(38,_24)
 + nodepairs_(38,_25) + nodepairs_(38,_26) + nodepairs_(38,_27)
 + nodepairs_(38,_28) + nodepairs_(38,_29) + nodepairs_(38,_3)
 + nodepairs_(38,_30) + nodepairs_(38,_31) + nodepairs_(38,_32)
 + nodepairs_(38,_33) + nodepairs_(38,_34) + nodepairs_(38,_35)
 + nodepairs_(38,_36) + nodepairs_(38,_37) + nodepairs_(38,_38)
 + nodepairs_(38,_39) + nodepairs_(38,_40) + nodepairs_(38,_42)
 + nodepairs_(38,_44) + nodepairs_(38,_45) + nodepairs_(38,_46)
 + nodepairs_(38,_47) + nodepairs_(38,_48) + nodepairs_(38,_49)
 + nodepairs_(38,_5) + nodepairs_(38,_50) + nodepairs_(38,_51)
 + nodepairs_(38,_52) + nodepairs_(38,_53) + nodepairs_(38,_54)
 + nodepairs_(38,_6) + nodepairs_(38,_7) + nodepairs_(38,_8)
 + nodepairs_(38,_9) <= 1
_C390: edgepairs_((3,_5),_(7,_8)) - nodepairs_(3,_7) - nodepairs_(3,_8) <= 0
_C3900: edgepairs_((7,_8),_(12,_13)) + edgepairs_((7,_8),_(13,_14))
 - nodepairs_(7,_13) - nodepairs_(8,_13) <= 0
_C3901: edgepairs_((8,_9),_(12,_13)) + edgepairs_((8,_9),_(13,_14))
 - nodepairs_(8,_13) - nodepairs_(9,_13) <= 0
_C3902: edgepairs_((9,_10),_(12,_13)) + edgepairs_((9,_10),_(13,_14))
 - nodepairs_(10,_13) - nodepairs_(9,_13) <= 0
_C3903: edgepairs_((10,_11),_(12,_13)) + edgepairs_((10,_11),_(13,_14))
 - nodepairs_(10,_13) - nodepairs_(11,_13) <= 0
_C3904: edgepairs_((11,_12),_(12,_13)) + edgepairs_((11,_12),_(13,_14))
 - nodepairs_(11,_13) - nodepairs_(12,_13) <= 0
_C3905: edgepairs_((12,_13),_(12,_13)) + edgepairs_((12,_13),_(13,_14))
 - nodepairs_(12,_13) - nodepairs_(13,_13) <= 0
_C3906: edgepairs_((13,_14),_(12,_13)) + edgepairs_((13,_14),_(13,_14))
 - nodepairs_(13,_13) - nodepairs_(14,_13) <= 0
_C3907: edgepairs_((14,_15),_(12,_13)) + edgepairs_((14,_15),_(13,_14))
 - nodepairs_(14,_13) - nodepairs_(15,_13) <= 0
_C3908: edgepairs_((15,_16),_(12,_13)) + edgepairs_((15,_16),_(13,_14))
 - nodepairs_(15,_13) - nodepairs_(16,_13) <= 0
_C3909: edgepairs_((16,_17),_(12,_13)) + edgepairs_((16,_17),_(13,_14))
 - nodepairs_(16,_13) - nodepairs_(17,_13) <= 0
_C391: edgepairs_((3,_5),_(8,_9)) - nodepairs_(3,_8) - nodepairs_(3,_9) <= 0
_C3910: edgepairs_((17,_18),_(12,_13)) + edgepairs_((17,_18),_(13,_14))
 - nodepairs_(17,_13) - nodepairs_(18,_13) <= 0
_C3911: edgepairs_((18,_19),_(12,_13)) + edgepairs_((18,_19),_(13,_14))
 - nodepairs_(18,_13) - nodepairs_(19,_13) <= 0
_C3912: edgepairs_((19,_20),_(12,_13)) + edgepairs_((19,_20),_(13,_14))
 - nodepairs_(19,_13) - nodepairs_(20,_13) <= 0
_C3913: edgepairs_((20,_21),_(12,_13)) + edgepairs_((20,_21),_(13,_14))
 - nodepairs_(20,_13) - nodepairs_(21,_13) <= 0
_C3914: edgepairs_((21,_22),_(12,_13)) + edgepairs_((21,_22),_(13,_14))
 - nodepairs_(21,_13) - nodepairs_(22,_13) <= 0
_C3915: edgepairs_((22,_23),_(12,_13)) + edgepairs_((22,_23),_(13,_14))
 - nodepairs_(22,_13) - nodepairs_(23,_13) <= 0
_C3916: edgepairs_((23,_24),_(12,_13)) + edgepairs_((23,_24),_(13,_14))
 - nodepairs_(23,_13) - nodepairs_(24,_13) <= 0
_C3917: edgepairs_((23,_25),_(12,_13)) + edgepairs_((23,_25),_(13,_14))
 - nodepairs_(23,_13) - nodepairs_(25,_13) <= 0
_C3918: - nodepairs_(26,_13) <= 0
_C3919: - nodepairs_(28,_13) <= 0
_C392: edgepairs_((3,_5),_(9,_10)) - nodepairs_(3,_10) - nodepairs_(3,_9) <= 0
_C3920: - nodepairs_(28,_13) <= 0
_C3921: edgepairs_((28,_30),_(12,_13)) + edgepairs_((28,_30),_(13,_14))
 - nodepairs_(28,_13) - nodepairs_(30,_13) <= 0
_C3922: edgepairs_((30,_31),_(12,_13)) + edgepairs_((30,_31),_(13,_14))
 - nodepairs_(30,_13) - nodepairs_(31,_13) <= 0
_C3923: edgepairs_((31,_32),_(12,_13)) + edgepairs_((31,_32),_(13,_14))
 - nodepairs_(31,_13) - nodepairs_(32,_13) <= 0
_C3924: edgepairs_((32,_33),_(12,_13)) + edgepairs_((32,_33),_(13,_14))
 - nodepairs_(32,_13) - nodepairs_(33,_13) <= 0
_C3925: edgepairs_((33,_34),_(12,_13)) + edgepairs_((33,_34),_(13,_14))
 - nodepairs_(33,_13) - nodepairs_(34,_13) <= 0
_C3926: edgepairs_((34,_35),_(12,_13)) + edgepairs_((34,_35),_(13,_14))
 - nodepairs_(34,_13) - nodepairs_(35,_13) <= 0
_C3927: edgepairs_((35,_36),_(12,_13)) + edgepairs_((35,_36),_(13,_14))
 - nodepairs_(35,_13) - nodepairs_(36,_13) <= 0
_C3928: edgepairs_((36,_37),_(12,_13)) + edgepairs_((36,_37),_(13,_14))
 - nodepairs_(36,_13) - nodepairs_(37,_13) <= 0
_C3929: edgepairs_((37,_38),_(12,_13)) + edgepairs_((37,_38),_(13,_14))
 - nodepairs_(37,_13) - nodepairs_(38,_13) <= 0
_C393: edgepairs_((3,_5),_(10,_11)) - nodepairs_(3,_10) - nodepairs_(3,_11)
 <= 0
_C3930: edgepairs_((38,_39),_(12,_13)) + edgepairs_((38,_39),_(13,_14))
 - nodepairs_(38,_13) - nodepairs_(39,_13) <= 0
_C3931: edgepairs_((39,_40),_(12,_13)) + edgepairs_((39,_40),_(13,_14))
 - nodepairs_(39,_13) - nodepairs_(40,_13) <= 0
_C3932: edgepairs_((40,_41),_(12,_13)) + edgepairs_((40,_41),_(13,_14))
 - nodepairs_(40,_13) - nodepairs_(41,_13) <= 0
_C3933: edgepairs_((40,_42),_(12,_13)) + edgepairs_((40,_42),_(13,_14))
 - nodepairs_(40,_13) - nodepairs_(42,_13) <= 0
_C3934: - nodepairs_(44,_13) <= 0
_C3935: - nodepairs_(44,_13) <= 0
_C3936: edgepairs_((44,_46),_(12,_13)) + edgepairs_((44,_46),_(13,_14))
 - nodepairs_(44,_13) - nodepairs_(46,_13) <= 0
_C3937: edgepairs_((46,_47),_(12,_13)) + edgepairs_((46,_47),_(13,_14))
 - nodepairs_(46,_13) - nodepairs_(47,_13) <= 0
_C3938: edgepairs_((47,_48),_(12,_13)) + edgepairs_((47,_48),_(13,_14))
 - nodepairs_(47,_13) - nodepairs_(48,_13) <= 0
_C3939: edgepairs_((48,_49),_(12,_13)) + edgepairs_((48,_49),_(13,_14))
 - nodepairs_(48,_13) - nodepairs_(49,_13) <= 0
_C394: edgepairs_((3,_5),_(11,_12)) - nodepairs_(3,_11) - nodepairs_(3,_12)
 <= 0
_C3940: edgepairs_((49,_50),_(12,_13)) + edgepairs_((49,_50),_(13,_14))
 - nodepairs_(49,_13) - nodepairs_(50,_13) <= 0
_C3941: edgepairs_((50,_51),_(12,_13)) + edgepairs_((50,_51),_(13,_14))
 - nodepairs_(50,_13) - nodepairs_(51,_13) <= 0
_C3942: edgepairs_((51,_52),_(12,_13)) + edgepairs_((51,_52),_(13,_14))
 - nodepairs_(51,_13) - nodepairs_(52,_13) <= 0
_C3943: edgepairs_((52,_53),_(12,_13)) + edgepairs_((52,_53),_(13,_14))
 - nodepairs_(52,_13) - nodepairs_(53,_13) <= 0
_C3944: edgepairs_((53,_54),_(12,_13)) + edgepairs_((53,_54),_(13,_14))
 - nodepairs_(53,_13) - nodepairs_(54,_13) <= 0
_C3945: edgepairs_((0,_1),_(13,_14)) + edgepairs_((0,_1),_(14,_15))
 - nodepairs_(0,_14) - nodepairs_(1,_14) <= 0
_C3946: edgepairs_((0,_26),_(13,_14)) + edgepairs_((0,_26),_(14,_15))
 - nodepairs_(0,_14) - nodepairs_(26,_14) <= 0
_C3947: - nodepairs_(0,_14) <= 0
_C3948: - nodepairs_(1,_14) <= 0
_C3949: - nodepairs_(3,_14) <= 0
_C395: edgepairs_((3,_5),_(12,_13)) - nodepairs_(3,_12) - nodepairs_(3,_13)
 <= 0
_C3950: - nodepairs_(3,_14) <= 0
_C3951: edgepairs_((3,_5),_(13,_14)) + edgepairs_((3,_5),_(14,_15))
 - nodepairs_(3,_14) - nodepairs_(5,_14) <= 0
_C3952: edgepairs_((5,_6),_(13,_14)) + edgepairs_((5,_6),_(14,_15))
 - nodepairs_(5,_14) - nodepairs_(6,_14) <= 0
_C3953: edgepairs_((6,_7),_(13,_14)) + edgepairs_((6,_7),_(14,_15))
 - nodepairs_(6,_14) - nodepairs_(7,_14) <= 0
_C3954: edgepairs_((7,_8),_(13,_14)) + edgepairs_((7,_8),_(14,_15))
 - nodepairs_(7,_14) - nodepairs_(8,_14) <= 0
_C3955: edgepairs_((8,_9),_(13,_14)) + edgepairs_((8,_9),_(14,_15))
 - nodepairs_(8,_14) - nodepairs_(9,_14) <= 0
_C3956: edgepairs_((9,_10),_(13,_14)) + edgepairs_((9,_10),_(14,_15))
 - nodepairs_(10,_14) - nodepairs_(9,_14) <= 0
_C3957: edgepairs_((10,_11),_(13,_14)) + edgepairs_((10,_11),_(14,_15))
 - nodepairs_(10,_14) - nodepairs_(11,_14) <= 0
_C3958: edgepairs_((11,_12),_(13,_14)) + edgepairs_((11,_12),_(14,_15))
 - nodepairs_(11,_14) - nodepairs_(12,_14) <= 0
_C3959: edgepairs_((12,_13),_(13,_14)) + edgepairs_((12,_13),_(14,_15))
 - nodepairs_(12,_14) - nodepairs_(13,_14) <= 0
_C396: edgepairs_((3,_5),_(13,_14)) - nodepairs_(3,_13) - nodepairs_(3,_14)
 <= 0
_C3960: edgepairs_((13,_14),_(13,_14)) + edgepairs_((13,_14),_(14,_15))
 - nodepairs_(13,_14) - nodepairs_(14,_14) <= 0
_C3961: edgepairs_((14,_15),_(13,_14)) + edgepairs_((14,_15),_(14,_15))
 - nodepairs_(14,_14) - nodepairs_(15,_14) <= 0
_C3962: edgepairs_((15,_16),_(13,_14)) + edgepairs_((15,_16),_(14,_15))
 - nodepairs_(15,_14) - nodepairs_(16,_14) <= 0
_C3963: edgepairs_((16,_17),_(13,_14)) + edgepairs_((16,_17),_(14,_15))
 - nodepairs_(16,_14) - nodepairs_(17,_14) <= 0
_C3964: edgepairs_((17,_18),_(13,_14)) + edgepairs_((17,_18),_(14,_15))
 - nodepairs_(17,_14) - nodepairs_(18,_14) <= 0
_C3965: edgepairs_((18,_19),_(13,_14)) + edgepairs_((18,_19),_(14,_15))
 - nodepairs_(18,_14) - nodepairs_(19,_14) <= 0
_C3966: edgepairs_((19,_20),_(13,_14)) + edgepairs_((19,_20),_(14,_15))
 - nodepairs_(19,_14) - nodepairs_(20,_14) <= 0
_C3967: edgepairs_((20,_21),_(13,_14)) + edgepairs_((20,_21),_(14,_15))
 - nodepairs_(20,_14) - nodepairs_(21,_14) <= 0
_C3968: edgepairs_((21,_22),_(13,_14)) + edgepairs_((21,_22),_(14,_15))
 - nodepairs_(21,_14) - nodepairs_(22,_14) <= 0
_C3969: edgepairs_((22,_23),_(13,_14)) + edgepairs_((22,_23),_(14,_15))
 - nodepairs_(22,_14) - nodepairs_(23,_14) <= 0
_C397: edgepairs_((3,_5),_(14,_15)) - nodepairs_(3,_14) - nodepairs_(3,_15)
 <= 0
_C3970: edgepairs_((23,_24),_(13,_14)) + edgepairs_((23,_24),_(14,_15))
 - nodepairs_(23,_14) - nodepairs_(24,_14) <= 0
_C3971: edgepairs_((23,_25),_(13,_14)) + edgepairs_((23,_25),_(14,_15))
 - nodepairs_(23,_14) - nodepairs_(25,_14) <= 0
_C3972: - nodepairs_(26,_14) <= 0
_C3973: - nodepairs_(28,_14) <= 0
_C3974: - nodepairs_(28,_14) <= 0
_C3975: edgepairs_((28,_30),_(13,_14)) + edgepairs_((28,_30),_(14,_15))
 - nodepairs_(28,_14) - nodepairs_(30,_14) <= 0
_C3976: edgepairs_((30,_31),_(13,_14)) + edgepairs_((30,_31),_(14,_15))
 - nodepairs_(30,_14) - nodepairs_(31,_14) <= 0
_C3977: edgepairs_((31,_32),_(13,_14)) + edgepairs_((31,_32),_(14,_15))
 - nodepairs_(31,_14) - nodepairs_(32,_14) <= 0
_C3978: edgepairs_((32,_33),_(13,_14)) + edgepairs_((32,_33),_(14,_15))
 - nodepairs_(32,_14) - nodepairs_(33,_14) <= 0
_C3979: edgepairs_((33,_34),_(13,_14)) + edgepairs_((33,_34),_(14,_15))
 - nodepairs_(33,_14) - nodepairs_(34,_14) <= 0
_C398: edgepairs_((3,_5),_(15,_16)) - nodepairs_(3,_15) - nodepairs_(3,_16)
 <= 0
_C3980: edgepairs_((34,_35),_(13,_14)) + edgepairs_((34,_35),_(14,_15))
 - nodepairs_(34,_14) - nodepairs_(35,_14) <= 0
_C3981: edgepairs_((35,_36),_(13,_14)) + edgepairs_((35,_36),_(14,_15))
 - nodepairs_(35,_14) - nodepairs_(36,_14) <= 0
_C3982: edgepairs_((36,_37),_(13,_14)) + edgepairs_((36,_37),_(14,_15))
 - nodepairs_(36,_14) - nodepairs_(37,_14) <= 0
_C3983: edgepairs_((37,_38),_(13,_14)) + edgepairs_((37,_38),_(14,_15))
 - nodepairs_(37,_14) - nodepairs_(38,_14) <= 0
_C3984: edgepairs_((38,_39),_(13,_14)) + edgepairs_((38,_39),_(14,_15))
 - nodepairs_(38,_14) - nodepairs_(39,_14) <= 0
_C3985: edgepairs_((39,_40),_(13,_14)) + edgepairs_((39,_40),_(14,_15))
 - nodepairs_(39,_14) - nodepairs_(40,_14) <= 0
_C3986: edgepairs_((40,_41),_(13,_14)) + edgepairs_((40,_41),_(14,_15))
 - nodepairs_(40,_14) - nodepairs_(41,_14) <= 0
_C3987: edgepairs_((40,_42),_(13,_14)) + edgepairs_((40,_42),_(14,_15))
 - nodepairs_(40,_14) - nodepairs_(42,_14) <= 0
_C3988: - nodepairs_(44,_14) <= 0
_C3989: - nodepairs_(44,_14) <= 0
_C399: edgepairs_((2,_3),_(17,_18)) + edgepairs_((3,_4),_(17,_18))
 - nodepairs_(3,_17) <= 0
_C3990: edgepairs_((44,_46),_(13,_14)) + edgepairs_((44,_46),_(14,_15))
 - nodepairs_(44,_14) - nodepairs_(46,_14) <= 0
_C3991: edgepairs_((46,_47),_(13,_14)) + edgepairs_((46,_47),_(14,_15))
 - nodepairs_(46,_14) - nodepairs_(47,_14) <= 0
_C3992: edgepairs_((47,_48),_(13,_14)) + edgepairs_((47,_48),_(14,_15))
 - nodepairs_(47,_14) - nodepairs_(48,_14) <= 0
_C3993: edgepairs_((48,_49),_(13,_14)) + edgepairs_((48,_49),_(14,_15))
 - nodepairs_(48,_14) - nodepairs_(49,_14) <= 0
_C3994: edgepairs_((49,_50),_(13,_14)) + edgepairs_((49,_50),_(14,_15))
 - nodepairs_(49,_14) - nodepairs_(50,_14) <= 0
_C3995: edgepairs_((50,_51),_(13,_14)) + edgepairs_((50,_51),_(14,_15))
 - nodepairs_(50,_14) - nodepairs_(51,_14) <= 0
_C3996: edgepairs_((51,_52),_(13,_14)) + edgepairs_((51,_52),_(14,_15))
 - nodepairs_(51,_14) - nodepairs_(52,_14) <= 0
_C3997: edgepairs_((52,_53),_(13,_14)) + edgepairs_((52,_53),_(14,_15))
 - nodepairs_(52,_14) - nodepairs_(53,_14) <= 0
_C3998: edgepairs_((53,_54),_(13,_14)) + edgepairs_((53,_54),_(14,_15))
 - nodepairs_(53,_14) - nodepairs_(54,_14) <= 0
_C3999: edgepairs_((0,_1),_(14,_15)) + edgepairs_((0,_1),_(15,_16))
 - nodepairs_(0,_15) - nodepairs_(1,_15) <= 0
_C4: nodepairs_(3,_0) + nodepairs_(3,_1) + nodepairs_(3,_10)
 + nodepairs_(3,_11) + nodepairs_(3,_12) + nodepairs_(3,_13)
 + nodepairs_(3,_14) + nodepairs_(3,_15) + nodepairs_(3,_16)
 + nodepairs_(3,_17) + nodepairs_(3,_19) + nodepairs_(3,_21)
 + nodepairs_(3,_22) + nodepairs_(3,_23) + nodepairs_(3,_24)
 + nodepairs_(3,_25) + nodepairs_(3,_26) + nodepairs_(3,_27)
 + nodepairs_(3,_28) + nodepairs_(3,_29) + nodepairs_(3,_3)
 + nodepairs_(3,_30) + nodepairs_(3,_31) + nodepairs_(3,_32)
 + nodepairs_(3,_33) + nodepairs_(3,_34) + nodepairs_(3,_35)
 + nodepairs_(3,_36) + nodepairs_(3,_37) + nodepairs_(3,_38)
 + nodepairs_(3,_39) + nodepairs_(3,_40) + nodepairs_(3,_42)
 + nodepairs_(3,_44) + nodepairs_(3,_45) + nodepairs_(3,_46)
 + nodepairs_(3,_47) + nodepairs_(3,_48) + nodepairs_(3,_49)
 + nodepairs_(3,_5) + nodepairs_(3,_50) + nodepairs_(3,_51)
 + nodepairs_(3,_52) + nodepairs_(3,_53) + nodepairs_(3,_54)
 + nodepairs_(3,_6) + nodepairs_(3,_7) + nodepairs_(3,_8) + nodepairs_(3,_9)
 <= 1
_C40: nodepairs_(39,_0) + nodepairs_(39,_1) + nodepairs_(39,_10)
 + nodepairs_(39,_11) + nodepairs_(39,_12) + nodepairs_(39,_13)
 + nodepairs_(39,_14) + nodepairs_(39,_15) + nodepairs_(39,_16)
 + nodepairs_(39,_17) + nodepairs_(39,_19) + nodepairs_(39,_21)
 + nodepairs_(39,_22) + nodepairs_(39,_23) + nodepairs_(39,_24)
 + nodepairs_(39,_25) + nodepairs_(39,_26) + nodepairs_(39,_27)
 + nodepairs_(39,_28) + nodepairs_(39,_29) + nodepairs_(39,_3)
 + nodepairs_(39,_30) + nodepairs_(39,_31) + nodepairs_(39,_32)
 + nodepairs_(39,_33) + nodepairs_(39,_34) + nodepairs_(39,_35)
 + nodepairs_(39,_36) + nodepairs_(39,_37) + nodepairs_(39,_38)
 + nodepairs_(39,_39) + nodepairs_(39,_40) + nodepairs_(39,_42)
 + nodepairs_(39,_44) + nodepairs_(39,_45) + nodepairs_(39,_46)
 + nodepairs_(39,_47) + nodepairs_(39,_48) + nodepairs_(39,_49)
 + nodepairs_(39,_5) + nodepairs_(39,_50) + nodepairs_(39,_51)
 + nodepairs_(39,_52) + nodepairs_(39,_53) + nodepairs_(39,_54)
 + nodepairs_(39,_6) + nodepairs_(39,_7) + nodepairs_(39,_8)
 + nodepairs_(39,_9) <= 1
_C400: edgepairs_((2,_3),_(18,_19)) + edgepairs_((3,_4),_(18,_19))
 - nodepairs_(3,_19) <= 0
_C4000: edgepairs_((0,_26),_(14,_15)) + edgepairs_((0,_26),_(15,_16))
 - nodepairs_(0,_15) - nodepairs_(26,_15) <= 0
_C4001: - nodepairs_(0,_15) <= 0
_C4002: - nodepairs_(1,_15) <= 0
_C4003: - nodepairs_(3,_15) <= 0
_C4004: - nodepairs_(3,_15) <= 0
_C4005: edgepairs_((3,_5),_(14,_15)) + edgepairs_((3,_5),_(15,_16))
 - nodepairs_(3,_15) - nodepairs_(5,_15) <= 0
_C4006: edgepairs_((5,_6),_(14,_15)) + edgepairs_((5,_6),_(15,_16))
 - nodepairs_(5,_15) - nodepairs_(6,_15) <= 0
_C4007: edgepairs_((6,_7),_(14,_15)) + edgepairs_((6,_7),_(15,_16))
 - nodepairs_(6,_15) - nodepairs_(7,_15) <= 0
_C4008: edgepairs_((7,_8),_(14,_15)) + edgepairs_((7,_8),_(15,_16))
 - nodepairs_(7,_15) - nodepairs_(8,_15) <= 0
_C4009: edgepairs_((8,_9),_(14,_15)) + edgepairs_((8,_9),_(15,_16))
 - nodepairs_(8,_15) - nodepairs_(9,_15) <= 0
_C401: edgepairs_((2,_3),_(19,_20)) + edgepairs_((3,_4),_(19,_20))
 - nodepairs_(3,_19) <= 0
_C4010: edgepairs_((9,_10),_(14,_15)) + edgepairs_((9,_10),_(15,_16))
 - nodepairs_(10,_15) - nodepairs_(9,_15) <= 0
_C4011: edgepairs_((10,_11),_(14,_15)) + edgepairs_((10,_11),_(15,_16))
 - nodepairs_(10,_15) - nodepairs_(11,_15) <= 0
_C4012: edgepairs_((11,_12),_(14,_15)) + edgepairs_((11,_12),_(15,_16))
 - nodepairs_(11,_15) - nodepairs_(12,_15) <= 0
_C4013: edgepairs_((12,_13),_(14,_15)) + edgepairs_((12,_13),_(15,_16))
 - nodepairs_(12,_15) - nodepairs_(13,_15) <= 0
_C4014: edgepairs_((13,_14),_(14,_15)) + edgepairs_((13,_14),_(15,_16))
 - nodepairs_(13,_15) - nodepairs_(14,_15) <= 0
_C4015: edgepairs_((14,_15),_(14,_15)) + edgepairs_((14,_15),_(15,_16))
 - nodepairs_(14,_15) - nodepairs_(15,_15) <= 0
_C4016: edgepairs_((15,_16),_(14,_15)) + edgepairs_((15,_16),_(15,_16))
 - nodepairs_(15,_15) - nodepairs_(16,_15) <= 0
_C4017: edgepairs_((16,_17),_(14,_15)) + edgepairs_((16,_17),_(15,_16))
 - nodepairs_(16,_15) - nodepairs_(17,_15) <= 0
_C4018: edgepairs_((17,_18),_(14,_15)) + edgepairs_((17,_18),_(15,_16))
 - nodepairs_(17,_15) - nodepairs_(18,_15) <= 0
_C4019: edgepairs_((18,_19),_(14,_15)) + edgepairs_((18,_19),_(15,_16))
 - nodepairs_(18,_15) - nodepairs_(19,_15) <= 0
_C402: edgepairs_((3,_5),_(19,_21)) - nodepairs_(3,_19) - nodepairs_(3,_21)
 <= 0
_C4020: edgepairs_((19,_20),_(14,_15)) + edgepairs_((19,_20),_(15,_16))
 - nodepairs_(19,_15) - nodepairs_(20,_15) <= 0
_C4021: edgepairs_((20,_21),_(14,_15)) + edgepairs_((20,_21),_(15,_16))
 - nodepairs_(20,_15) - nodepairs_(21,_15) <= 0
_C4022: edgepairs_((21,_22),_(14,_15)) + edgepairs_((21,_22),_(15,_16))
 - nodepairs_(21,_15) - nodepairs_(22,_15) <= 0
_C4023: edgepairs_((22,_23),_(14,_15)) + edgepairs_((22,_23),_(15,_16))
 - nodepairs_(22,_15) - nodepairs_(23,_15) <= 0
_C4024: edgepairs_((23,_24),_(14,_15)) + edgepairs_((23,_24),_(15,_16))
 - nodepairs_(23,_15) - nodepairs_(24,_15) <= 0
_C4025: edgepairs_((23,_25),_(14,_15)) + edgepairs_((23,_25),_(15,_16))
 - nodepairs_(23,_15) - nodepairs_(25,_15) <= 0
_C4026: - nodepairs_(26,_15) <= 0
_C4027: - nodepairs_(28,_15) <= 0
_C4028: - nodepairs_(28,_15) <= 0
_C4029: edgepairs_((28,_30),_(14,_15)) + edgepairs_((28,_30),_(15,_16))
 - nodepairs_(28,_15) - nodepairs_(30,_15) <= 0
_C403: edgepairs_((3,_5),_(21,_22)) - nodepairs_(3,_21) - nodepairs_(3,_22)
 <= 0
_C4030: edgepairs_((30,_31),_(14,_15)) + edgepairs_((30,_31),_(15,_16))
 - nodepairs_(30,_15) - nodepairs_(31,_15) <= 0
_C4031: edgepairs_((31,_32),_(14,_15)) + edgepairs_((31,_32),_(15,_16))
 - nodepairs_(31,_15) - nodepairs_(32,_15) <= 0
_C4032: edgepairs_((32,_33),_(14,_15)) + edgepairs_((32,_33),_(15,_16))
 - nodepairs_(32,_15) - nodepairs_(33,_15) <= 0
_C4033: edgepairs_((33,_34),_(14,_15)) + edgepairs_((33,_34),_(15,_16))
 - nodepairs_(33,_15) - nodepairs_(34,_15) <= 0
_C4034: edgepairs_((34,_35),_(14,_15)) + edgepairs_((34,_35),_(15,_16))
 - nodepairs_(34,_15) - nodepairs_(35,_15) <= 0
_C4035: edgepairs_((35,_36),_(14,_15)) + edgepairs_((35,_36),_(15,_16))
 - nodepairs_(35,_15) - nodepairs_(36,_15) <= 0
_C4036: edgepairs_((36,_37),_(14,_15)) + edgepairs_((36,_37),_(15,_16))
 - nodepairs_(36,_15) - nodepairs_(37,_15) <= 0
_C4037: edgepairs_((37,_38),_(14,_15)) + edgepairs_((37,_38),_(15,_16))
 - nodepairs_(37,_15) - nodepairs_(38,_15) <= 0
_C4038: edgepairs_((38,_39),_(14,_15)) + edgepairs_((38,_39),_(15,_16))
 - nodepairs_(38,_15) - nodepairs_(39,_15) <= 0
_C4039: edgepairs_((39,_40),_(14,_15)) + edgepairs_((39,_40),_(15,_16))
 - nodepairs_(39,_15) - nodepairs_(40,_15) <= 0
_C404: edgepairs_((3,_5),_(22,_23)) - nodepairs_(3,_22) - nodepairs_(3,_23)
 <= 0
_C4040: edgepairs_((40,_41),_(14,_15)) + edgepairs_((40,_41),_(15,_16))
 - nodepairs_(40,_15) - nodepairs_(41,_15) <= 0
_C4041: edgepairs_((40,_42),_(14,_15)) + edgepairs_((40,_42),_(15,_16))
 - nodepairs_(40,_15) - nodepairs_(42,_15) <= 0
_C4042: - nodepairs_(44,_15) <= 0
_C4043: - nodepairs_(44,_15) <= 0
_C4044: edgepairs_((44,_46),_(14,_15)) + edgepairs_((44,_46),_(15,_16))
 - nodepairs_(44,_15) - nodepairs_(46,_15) <= 0
_C4045: edgepairs_((46,_47),_(14,_15)) + edgepairs_((46,_47),_(15,_16))
 - nodepairs_(46,_15) - nodepairs_(47,_15) <= 0
_C4046: edgepairs_((47,_48),_(14,_15)) + edgepairs_((47,_48),_(15,_16))
 - nodepairs_(47,_15) - nodepairs_(48,_15) <= 0
_C4047: edgepairs_((48,_49),_(14,_15)) + edgepairs_((48,_49),_(15,_16))
 - nodepairs_(48,_15) - nodepairs_(49,_15) <= 0
_C4048: edgepairs_((49,_50),_(14,_15)) + edgepairs_((49,_50),_(15,_16))
 - nodepairs_(49,_15) - nodepairs_(50,_15) <= 0
_C4049: edgepairs_((50,_51),_(14,_15)) + edgepairs_((50,_51),_(15,_16))
 - nodepairs_(50,_15) - nodepairs_(51,_15) <= 0
_C405: edgepairs_((3,_5),_(23,_24)) - nodepairs_(3,_23) - nodepairs_(3,_24)
 <= 0
_C4050: edgepairs_((51,_52),_(14,_15)) + edgepairs_((51,_52),_(15,_16))
 - nodepairs_(51,_15) - nodepairs_(52,_15) <= 0
_C4051: edgepairs_((52,_53),_(14,_15)) + edgepairs_((52,_53),_(15,_16))
 - nodepairs_(52,_15) - nodepairs_(53,_15) <= 0
_C4052: edgepairs_((53,_54),_(14,_15)) + edgepairs_((53,_54),_(15,_16))
 - nodepairs_(53,_15) - nodepairs_(54,_15) <= 0
_C4053: edgepairs_((0,_1),_(15,_16)) - nodepairs_(0,_16) - nodepairs_(1,_16)
 <= 0
_C4054: edgepairs_((0,_26),_(15,_16)) - nodepairs_(0,_16) - nodepairs_(26,_16)
 <= 0
_C4055: - nodepairs_(0,_16) <= 0
_C4056: - nodepairs_(1,_16) <= 0
_C4057: - nodepairs_(3,_16) <= 0
_C4058: - nodepairs_(3,_16) <= 0
_C4059: edgepairs_((3,_5),_(15,_16)) - nodepairs_(3,_16) - nodepairs_(5,_16)
 <= 0
_C406: edgepairs_((3,_5),_(24,_25)) - nodepairs_(3,_24) - nodepairs_(3,_25)
 <= 0
_C4060: edgepairs_((5,_6),_(15,_16)) - nodepairs_(5,_16) - nodepairs_(6,_16)
 <= 0
_C4061: edgepairs_((6,_7),_(15,_16)) - nodepairs_(6,_16) - nodepairs_(7,_16)
 <= 0
_C4062: edgepairs_((7,_8),_(15,_16)) - nodepairs_(7,_16) - nodepairs_(8,_16)
 <= 0
_C4063: edgepairs_((8,_9),_(15,_16)) - nodepairs_(8,_16) - nodepairs_(9,_16)
 <= 0
_C4064: edgepairs_((9,_10),_(15,_16)) - nodepairs_(10,_16) - nodepairs_(9,_16)
 <= 0
_C4065: edgepairs_((10,_11),_(15,_16)) - nodepairs_(10,_16)
 - nodepairs_(11,_16) <= 0
_C4066: edgepairs_((11,_12),_(15,_16)) - nodepairs_(11,_16)
 - nodepairs_(12,_16) <= 0
_C4067: edgepairs_((12,_13),_(15,_16)) - nodepairs_(12,_16)
 - nodepairs_(13,_16) <= 0
_C4068: edgepairs_((13,_14),_(15,_16)) - nodepairs_(13,_16)
 - nodepairs_(14,_16) <= 0
_C4069: edgepairs_((14,_15),_(15,_16)) - nodepairs_(14,_16)
 - nodepairs_(15,_16) <= 0
_C407: edgepairs_((3,_5),_(25,_26)) - nodepairs_(3,_25) - nodepairs_(3,_26)
 <= 0
_C4070: edgepairs_((15,_16),_(15,_16)) - nodepairs_(15,_16)
 - nodepairs_(16,_16) <= 0
_C4071: edgepairs_((16,_17),_(15,_16)) - nodepairs_(16,_16)
 - nodepairs_(17,_16) <= 0
_C4072: edgepairs_((17,_18),_(15,_16)) - nodepairs_(17,_16)
 - nodepairs_(18,_16) <= 0
_C4073: edgepairs_((18,_19),_(15,_16)) - nodepairs_(18,_16)
 - nodepairs_(19,_16) <= 0
_C4074: edgepairs_((19,_20),_(15,_16)) - nodepairs_(19,_16)
 - nodepairs_(20,_16) <= 0
_C4075: edgepairs_((20,_21),_(15,_16)) - nodepairs_(20,_16)
 - nodepairs_(21,_16) <= 0
_C4076: edgepairs_((21,_22),_(15,_16)) - nodepairs_(21,_16)
 - nodepairs_(22,_16) <= 0
_C4077: edgepairs_((22,_23),_(15,_16)) - nodepairs_(22,_16)
 - nodepairs_(23,_16) <= 0
_C4078: edgepairs_((23,_24),_(15,_16)) - nodepairs_(23,_16)
 - nodepairs_(24,_16) <= 0
_C4079: edgepairs_((23,_25),_(15,_16)) - nodepairs_(23,_16)
 - nodepairs_(25,_16) <= 0
_C408: edgepairs_((3,_5),_(26,_27)) - nodepairs_(3,_26) - nodepairs_(3,_27)
 <= 0
_C4080: - nodepairs_(26,_16) <= 0
_C4081: - nodepairs_(28,_16) <= 0
_C4082: - nodepairs_(28,_16) <= 0
_C4083: edgepairs_((28,_30),_(15,_16)) - nodepairs_(28,_16)
 - nodepairs_(30,_16) <= 0
_C4084: edgepairs_((30,_31),_(15,_16)) - nodepairs_(30,_16)
 - nodepairs_(31,_16) <= 0
_C4085: edgepairs_((31,_32),_(15,_16)) - nodepairs_(31,_16)
 - nodepairs_(32,_16) <= 0
_C4086: edgepairs_((32,_33),_(15,_16)) - nodepairs_(32,_16)
 - nodepairs_(33,_16) <= 0
_C4087: edgepairs_((33,_34),_(15,_16)) - nodepairs_(33,_16)
 - nodepairs_(34,_16) <= 0
_C4088: edgepairs_((34,_35),_(15,_16)) - nodepairs_(34,_16)
 - nodepairs_(35,_16) <= 0
_C4089: edgepairs_((35,_36),_(15,_16)) - nodepairs_(35,_16)
 - nodepairs_(36,_16) <= 0
_C409: edgepairs_((3,_5),_(27,_28)) - nodepairs_(3,_27) - nodepairs_(3,_28)
 <= 0
_C4090: edgepairs_((36,_37),_(15,_16)) - nodepairs_(36,_16)
 - nodepairs_(37,_16) <= 0
_C4091: edgepairs_((37,_38),_(15,_16)) - nodepairs_(37,_16)
 - nodepairs_(38,_16) <= 0
_C4092: edgepairs_((38,_39),_(15,_16)) - nodepairs_(38,_16)
 - nodepairs_(39,_16) <= 0
_C4093: edgepairs_((39,_40),_(15,_16)) - nodepairs_(39,_16)
 - nodepairs_(40,_16) <= 0
_C4094: edgepairs_((40,_41),_(15,_16)) - nodepairs_(40,_16)
 - nodepairs_(41,_16) <= 0
_C4095: edgepairs_((40,_42),_(15,_16)) - nodepairs_(40,_16)
 - nodepairs_(42,_16) <= 0
_C4096: - nodepairs_(44,_16) <= 0
_C4097: - nodepairs_(44,_16) <= 0
_C4098: edgepairs_((44,_46),_(15,_16)) - nodepairs_(44,_16)
 - nodepairs_(46,_16) <= 0
_C4099: edgepairs_((46,_47),_(15,_16)) - nodepairs_(46,_16)
 - nodepairs_(47,_16) <= 0
_C41: nodepairs_(40,_0) + nodepairs_(40,_1) + nodepairs_(40,_10)
 + nodepairs_(40,_11) + nodepairs_(40,_12) + nodepairs_(40,_13)
 + nodepairs_(40,_14) + nodepairs_(40,_15) + nodepairs_(40,_16)
 + nodepairs_(40,_17) + nodepairs_(40,_19) + nodepairs_(40,_21)
 + nodepairs_(40,_22) + nodepairs_(40,_23) + nodepairs_(40,_24)
 + nodepairs_(40,_25) + nodepairs_(40,_26) + nodepairs_(40,_27)
 + nodepairs_(40,_28) + nodepairs_(40,_29) + nodepairs_(40,_3)
 + nodepairs_(40,_30) + nodepairs_(40,_31) + nodepairs_(40,_32)
 + nodepairs_(40,_33) + nodepairs_(40,_34) + nodepairs_(40,_35)
 + nodepairs_(40,_36) + nodepairs_(40,_37) + nodepairs_(40,_38)
 + nodepairs_(40,_39) + nodepairs_(40,_40) + nodepairs_(40,_42)
 + nodepairs_(40,_44) + nodepairs_(40,_45) + nodepairs_(40,_46)
 + nodepairs_(40,_47) + nodepairs_(40,_48) + nodepairs_(40,_49)
 + nodepairs_(40,_5) + nodepairs_(40,_50) + nodepairs_(40,_51)
 + nodepairs_(40,_52) + nodepairs_(40,_53) + nodepairs_(40,_54)
 + nodepairs_(40,_6) + nodepairs_(40,_7) + nodepairs_(40,_8)
 + nodepairs_(40,_9) <= 1
_C410: edgepairs_((3,_5),_(28,_29)) - nodepairs_(3,_28) - nodepairs_(3,_29)
 <= 0
_C4100: edgepairs_((47,_48),_(15,_16)) - nodepairs_(47,_16)
 - nodepairs_(48,_16) <= 0
_C4101: edgepairs_((48,_49),_(15,_16)) - nodepairs_(48,_16)
 - nodepairs_(49,_16) <= 0
_C4102: edgepairs_((49,_50),_(15,_16)) - nodepairs_(49,_16)
 - nodepairs_(50,_16) <= 0
_C4103: edgepairs_((50,_51),_(15,_16)) - nodepairs_(50,_16)
 - nodepairs_(51,_16) <= 0
_C4104: edgepairs_((51,_52),_(15,_16)) - nodepairs_(51,_16)
 - nodepairs_(52,_16) <= 0
_C4105: edgepairs_((52,_53),_(15,_16)) - nodepairs_(52,_16)
 - nodepairs_(53,_16) <= 0
_C4106: edgepairs_((53,_54),_(15,_16)) - nodepairs_(53,_16)
 - nodepairs_(54,_16) <= 0
_C4107: edgepairs_((0,_1),_(0,_17)) - nodepairs_(0,_17) - nodepairs_(1,_17)
 <= 0
_C4108: edgepairs_((0,_26),_(0,_17)) - nodepairs_(0,_17) - nodepairs_(26,_17)
 <= 0
_C4109: edgepairs_((0,_43),_(17,_18)) - nodepairs_(0,_17) <= 0
_C411: edgepairs_((3,_5),_(29,_30)) - nodepairs_(3,_29) - nodepairs_(3,_30)
 <= 0
_C4110: edgepairs_((1,_2),_(17,_18)) - nodepairs_(1,_17) <= 0
_C4111: edgepairs_((2,_3),_(17,_18)) - nodepairs_(3,_17) <= 0
_C4112: edgepairs_((3,_4),_(17,_18)) - nodepairs_(3,_17) <= 0
_C4113: edgepairs_((3,_5),_(0,_17)) - nodepairs_(3,_17) - nodepairs_(5,_17)
 <= 0
_C4114: edgepairs_((5,_6),_(0,_17)) - nodepairs_(5,_17) - nodepairs_(6,_17)
 <= 0
_C4115: edgepairs_((6,_7),_(0,_17)) - nodepairs_(6,_17) - nodepairs_(7,_17)
 <= 0
_C4116: edgepairs_((7,_8),_(0,_17)) - nodepairs_(7,_17) - nodepairs_(8,_17)
 <= 0
_C4117: edgepairs_((8,_9),_(0,_17)) - nodepairs_(8,_17) - nodepairs_(9,_17)
 <= 0
_C4118: edgepairs_((9,_10),_(0,_17)) - nodepairs_(10,_17) - nodepairs_(9,_17)
 <= 0
_C4119: edgepairs_((10,_11),_(0,_17)) - nodepairs_(10,_17)
 - nodepairs_(11,_17) <= 0
_C412: edgepairs_((3,_5),_(30,_31)) - nodepairs_(3,_30) - nodepairs_(3,_31)
 <= 0
_C4120: edgepairs_((11,_12),_(0,_17)) - nodepairs_(11,_17)
 - nodepairs_(12,_17) <= 0
_C4121: edgepairs_((12,_13),_(0,_17)) - nodepairs_(12,_17)
 - nodepairs_(13,_17) <= 0
_C4122: edgepairs_((13,_14),_(0,_17)) - nodepairs_(13,_17)
 - nodepairs_(14,_17) <= 0
_C4123: edgepairs_((14,_15),_(0,_17)) - nodepairs_(14,_17)
 - nodepairs_(15,_17) <= 0
_C4124: edgepairs_((15,_16),_(0,_17)) - nodepairs_(15,_17)
 - nodepairs_(16,_17) <= 0
_C4125: edgepairs_((16,_17),_(0,_17)) - nodepairs_(16,_17)
 - nodepairs_(17,_17) <= 0
_C4126: edgepairs_((17,_18),_(0,_17)) - nodepairs_(17,_17)
 - nodepairs_(18,_17) <= 0
_C4127: edgepairs_((18,_19),_(0,_17)) - nodepairs_(18,_17)
 - nodepairs_(19,_17) <= 0
_C4128: edgepairs_((19,_20),_(0,_17)) - nodepairs_(19,_17)
 - nodepairs_(20,_17) <= 0
_C4129: edgepairs_((20,_21),_(0,_17)) - nodepairs_(20,_17)
 - nodepairs_(21,_17) <= 0
_C413: edgepairs_((3,_5),_(31,_32)) - nodepairs_(3,_31) - nodepairs_(3,_32)
 <= 0
_C4130: edgepairs_((21,_22),_(0,_17)) - nodepairs_(21,_17)
 - nodepairs_(22,_17) <= 0
_C4131: edgepairs_((22,_23),_(0,_17)) - nodepairs_(22,_17)
 - nodepairs_(23,_17) <= 0
_C4132: edgepairs_((23,_24),_(0,_17)) - nodepairs_(23,_17)
 - nodepairs_(24,_17) <= 0
_C4133: edgepairs_((23,_25),_(0,_17)) - nodepairs_(23,_17)
 - nodepairs_(25,_17) <= 0
_C4134: edgepairs_((26,_27),_(17,_18)) - nodepairs_(26,_17) <= 0
_C4135: edgepairs_((27,_28),_(17,_18)) - nodepairs_(28,_17) <= 0
_C4136: edgepairs_((28,_29),_(17,_18)) - nodepairs_(28,_17) <= 0
_C4137: edgepairs_((28,_30),_(0,_17)) - nodepairs_(28,_17)
 - nodepairs_(30,_17) <= 0
_C4138: edgepairs_((30,_31),_(0,_17)) - nodepairs_(30,_17)
 - nodepairs_(31,_17) <= 0
_C4139: edgepairs_((31,_32),_(0,_17)) - nodepairs_(31,_17)
 - nodepairs_(32,_17) <= 0
_C414: edgepairs_((3,_5),_(32,_33)) - nodepairs_(3,_32) - nodepairs_(3,_33)
 <= 0
_C4140: edgepairs_((32,_33),_(0,_17)) - nodepairs_(32,_17)
 - nodepairs_(33,_17) <= 0
_C4141: edgepairs_((33,_34),_(0,_17)) - nodepairs_(33,_17)
 - nodepairs_(34,_17) <= 0
_C4142: edgepairs_((34,_35),_(0,_17)) - nodepairs_(34,_17)
 - nodepairs_(35,_17) <= 0
_C4143: edgepairs_((35,_36),_(0,_17)) - nodepairs_(35,_17)
 - nodepairs_(36,_17) <= 0
_C4144: edgepairs_((36,_37),_(0,_17)) - nodepairs_(36,_17)
 - nodepairs_(37,_17) <= 0
_C4145: edgepairs_((37,_38),_(0,_17)) - nodepairs_(37,_17)
 - nodepairs_(38,_17) <= 0
_C4146: edgepairs_((38,_39),_(0,_17)) - nodepairs_(38,_17)
 - nodepairs_(39,_17) <= 0
_C4147: edgepairs_((39,_40),_(0,_17)) - nodepairs_(39,_17)
 - nodepairs_(40,_17) <= 0
_C4148: edgepairs_((40,_41),_(0,_17)) - nodepairs_(40,_17)
 - nodepairs_(41,_17) <= 0
_C4149: edgepairs_((40,_42),_(0,_17)) - nodepairs_(40,_17)
 - nodepairs_(42,_17) <= 0
_C415: edgepairs_((3,_5),_(33,_34)) - nodepairs_(3,_33) - nodepairs_(3,_34)
 <= 0
_C4150: edgepairs_((43,_44),_(17,_18)) - nodepairs_(44,_17) <= 0
_C4151: edgepairs_((44,_45),_(17,_18)) - nodepairs_(44,_17) <= 0
_C4152: edgepairs_((44,_46),_(0,_17)) - nodepairs_(44,_17)
 - nodepairs_(46,_17) <= 0
_C4153: edgepairs_((46,_47),_(0,_17)) - nodepairs_(46,_17)
 - nodepairs_(47,_17) <= 0
_C4154: edgepairs_((47,_48),_(0,_17)) - nodepairs_(47,_17)
 - nodepairs_(48,_17) <= 0
_C4155: edgepairs_((48,_49),_(0,_17)) - nodepairs_(48,_17)
 - nodepairs_(49,_17) <= 0
_C4156: edgepairs_((49,_50),_(0,_17)) - nodepairs_(49,_17)
 - nodepairs_(50,_17) <= 0
_C4157: edgepairs_((50,_51),_(0,_17)) - nodepairs_(50,_17)
 - nodepairs_(51,_17) <= 0
_C4158: edgepairs_((51,_52),_(0,_17)) - nodepairs_(51,_17)
 - nodepairs_(52,_17) <= 0
_C4159: edgepairs_((52,_53),_(0,_17)) - nodepairs_(52,_17)
 - nodepairs_(53,_17) <= 0
_C416: edgepairs_((3,_5),_(34,_35)) - nodepairs_(3,_34) - nodepairs_(3,_35)
 <= 0
_C4160: edgepairs_((53,_54),_(0,_17)) - nodepairs_(53,_17)
 - nodepairs_(54,_17) <= 0
_C4161: __dummy <= 0
_C4162: __dummy <= 0
_C4163: edgepairs_((0,_43),_(17,_18)) + edgepairs_((0,_43),_(18,_19))
 - nodepairs_(43,_18) <= 0
_C4164: edgepairs_((1,_2),_(17,_18)) + edgepairs_((1,_2),_(18,_19))
 - nodepairs_(2,_18) <= 0
_C4165: edgepairs_((2,_3),_(17,_18)) + edgepairs_((2,_3),_(18,_19))
 - nodepairs_(2,_18) <= 0
_C4166: edgepairs_((3,_4),_(17,_18)) + edgepairs_((3,_4),_(18,_19))
 - nodepairs_(4,_18) <= 0
_C4167: __dummy <= 0
_C4168: __dummy <= 0
_C4169: __dummy <= 0
_C417: edgepairs_((3,_5),_(35,_36)) - nodepairs_(3,_35) - nodepairs_(3,_36)
 <= 0
_C4170: __dummy <= 0
_C4171: __dummy <= 0
_C4172: __dummy <= 0
_C4173: __dummy <= 0
_C4174: __dummy <= 0
_C4175: __dummy <= 0
_C4176: __dummy <= 0
_C4177: __dummy <= 0
_C4178: __dummy <= 0
_C4179: __dummy <= 0
_C418: edgepairs_((3,_5),_(36,_37)) - nodepairs_(3,_36) - nodepairs_(3,_37)
 <= 0
_C4180: __dummy <= 0
_C4181: __dummy <= 0
_C4182: __dummy <= 0
_C4183: __dummy <= 0
_C4184: __dummy <= 0
_C4185: __dummy <= 0
_C4186: __dummy <= 0
_C4187: __dummy <= 0
_C4188: edgepairs_((26,_27),_(17,_18)) + edgepairs_((26,_27),_(18,_19))
 - nodepairs_(27,_18) <= 0
_C4189: edgepairs_((27,_28),_(17,_18)) + edgepairs_((27,_28),_(18,_19))
 - nodepairs_(27,_18) <= 0
_C419: edgepairs_((3,_5),_(37,_38)) - nodepairs_(3,_37) - nodepairs_(3,_38)
 <= 0
_C4190: edgepairs_((28,_29),_(17,_18)) + edgepairs_((28,_29),_(18,_19))
 - nodepairs_(29,_18) <= 0
_C4191: __dummy <= 0
_C4192: __dummy <= 0
_C4193: __dummy <= 0
_C4194: __dummy <= 0
_C4195: __dummy <= 0
_C4196: __dummy <= 0
_C4197: __dummy <= 0
_C4198: __dummy <= 0
_C4199: __dummy <= 0
_C42: nodepairs_(41,_0) + nodepairs_(41,_1) + nodepairs_(41,_10)
 + nodepairs_(41,_11) + nodepairs_(41,_12) + nodepairs_(41,_13)
 + nodepairs_(41,_14) + nodepairs_(41,_15) + nodepairs_(41,_16)
 + nodepairs_(41,_17) + nodepairs_(41,_19) + nodepairs_(41,_21)
 + nodepairs_(41,_22) + nodepairs_(41,_23) + nodepairs_(41,_24)
 + nodepairs_(41,_25) + nodepairs_(41,_26) + nodepairs_(41,_27)
 + nodepairs_(41,_28) + nodepairs_(41,_29) + nodepairs_(41,_3)
 + nodepairs_(41,_30) + nodepairs_(41,_31) + nodepairs_(41,_32)
 + nodepairs_(41,_33) + nodepairs_(41,_34) + nodepairs_(41,_35)
 + nodepairs_(41,_36) + nodepairs_(41,_37) + nodepairs_(41,_38)
 + nodepairs_(41,_39) + nodepairs_(41,_40) + nodepairs_(41,_42)
 + nodepairs_(41,_44) + nodepairs_(41,_45) + nodepairs_(41,_46)
 + nodepairs_(41,_47) + nodepairs_(41,_48) + nodepairs_(41,_49)
 + nodepairs_(41,_5) + nodepairs_(41,_50) + nodepairs_(41,_51)
 + nodepairs_(41,_52) + nodepairs_(41,_53) + nodepairs_(41,_54)
 + nodepairs_(41,_6) + nodepairs_(41,_7) + nodepairs_(41,_8)
 + nodepairs_(41,_9) <= 1
_C420: edgepairs_((3,_5),_(37,_39)) - nodepairs_(3,_37) - nodepairs_(3,_39)
 <= 0
_C4200: __dummy <= 0
_C4201: __dummy <= 0
_C4202: __dummy <= 0
_C4203: __dummy <= 0
_C4204: edgepairs_((43,_44),_(17,_18)) + edgepairs_((43,_44),_(18,_19))
 - nodepairs_(43,_18) <= 0
_C4205: edgepairs_((44,_45),_(17,_18)) + edgepairs_((44,_45),_(18,_19))
 - nodepairs_(45,_18) <= 0
_C4206: __dummy <= 0
_C4207: __dummy <= 0
_C4208: __dummy <= 0
_C4209: __dummy <= 0
_C421: edgepairs_((3,_5),_(39,_40)) - nodepairs_(3,_39) - nodepairs_(3,_40)
 <= 0
_C4210: __dummy <= 0
_C4211: __dummy <= 0
_C4212: __dummy <= 0
_C4213: __dummy <= 0
_C4214: __dummy <= 0
_C4215: edgepairs_((0,_1),_(19,_21)) - nodepairs_(0,_19) - nodepairs_(1,_19)
 <= 0
_C4216: edgepairs_((0,_26),_(19,_21)) - nodepairs_(0,_19) - nodepairs_(26,_19)
 <= 0
_C4217: edgepairs_((0,_43),_(18,_19)) + edgepairs_((0,_43),_(19,_20))
 - nodepairs_(0,_19) <= 0
_C4218: edgepairs_((1,_2),_(18,_19)) + edgepairs_((1,_2),_(19,_20))
 - nodepairs_(1,_19) <= 0
_C4219: edgepairs_((2,_3),_(18,_19)) + edgepairs_((2,_3),_(19,_20))
 - nodepairs_(3,_19) <= 0
_C422: edgepairs_((2,_3),_(41,_42)) + edgepairs_((3,_4),_(41,_42))
 - nodepairs_(3,_42) <= 0
_C4220: edgepairs_((3,_4),_(18,_19)) + edgepairs_((3,_4),_(19,_20))
 - nodepairs_(3,_19) <= 0
_C4221: edgepairs_((3,_5),_(19,_21)) - nodepairs_(3,_19) - nodepairs_(5,_19)
 <= 0
_C4222: edgepairs_((5,_6),_(19,_21)) - nodepairs_(5,_19) - nodepairs_(6,_19)
 <= 0
_C4223: edgepairs_((6,_7),_(19,_21)) - nodepairs_(6,_19) - nodepairs_(7,_19)
 <= 0
_C4224: edgepairs_((7,_8),_(19,_21)) - nodepairs_(7,_19) - nodepairs_(8,_19)
 <= 0
_C4225: edgepairs_((8,_9),_(19,_21)) - nodepairs_(8,_19) - nodepairs_(9,_19)
 <= 0
_C4226: edgepairs_((9,_10),_(19,_21)) - nodepairs_(10,_19) - nodepairs_(9,_19)
 <= 0
_C4227: edgepairs_((10,_11),_(19,_21)) - nodepairs_(10,_19)
 - nodepairs_(11,_19) <= 0
_C4228: edgepairs_((11,_12),_(19,_21)) - nodepairs_(11,_19)
 - nodepairs_(12,_19) <= 0
_C4229: edgepairs_((12,_13),_(19,_21)) - nodepairs_(12,_19)
 - nodepairs_(13,_19) <= 0
_C423: edgepairs_((2,_3),_(42,_43)) + edgepairs_((3,_4),_(42,_43))
 - nodepairs_(3,_42) <= 0
_C4230: edgepairs_((13,_14),_(19,_21)) - nodepairs_(13,_19)
 - nodepairs_(14,_19) <= 0
_C4231: edgepairs_((14,_15),_(19,_21)) - nodepairs_(14,_19)
 - nodepairs_(15,_19) <= 0
_C4232: edgepairs_((15,_16),_(19,_21)) - nodepairs_(15,_19)
 - nodepairs_(16,_19) <= 0
_C4233: edgepairs_((16,_17),_(19,_21)) - nodepairs_(16,_19)
 - nodepairs_(17,_19) <= 0
_C4234: edgepairs_((17,_18),_(19,_21)) - nodepairs_(17,_19)
 - nodepairs_(18,_19) <= 0
_C4235: edgepairs_((18,_19),_(19,_21)) - nodepairs_(18,_19)
 - nodepairs_(19,_19) <= 0
_C4236: edgepairs_((19,_20),_(19,_21)) - nodepairs_(19,_19)
 - nodepairs_(20,_19) <= 0
_C4237: edgepairs_((20,_21),_(19,_21)) - nodepairs_(20,_19)
 - nodepairs_(21,_19) <= 0
_C4238: edgepairs_((21,_22),_(19,_21)) - nodepairs_(21,_19)
 - nodepairs_(22,_19) <= 0
_C4239: edgepairs_((22,_23),_(19,_21)) - nodepairs_(22,_19)
 - nodepairs_(23,_19) <= 0
_C424: edgepairs_((3,_5),_(42,_44)) - nodepairs_(3,_42) - nodepairs_(3,_44)
 <= 0
_C4240: edgepairs_((23,_24),_(19,_21)) - nodepairs_(23,_19)
 - nodepairs_(24,_19) <= 0
_C4241: edgepairs_((23,_25),_(19,_21)) - nodepairs_(23,_19)
 - nodepairs_(25,_19) <= 0
_C4242: edgepairs_((26,_27),_(18,_19)) + edgepairs_((26,_27),_(19,_20))
 - nodepairs_(26,_19) <= 0
_C4243: edgepairs_((27,_28),_(18,_19)) + edgepairs_((27,_28),_(19,_20))
 - nodepairs_(28,_19) <= 0
_C4244: edgepairs_((28,_29),_(18,_19)) + edgepairs_((28,_29),_(19,_20))
 - nodepairs_(28,_19) <= 0
_C4245: edgepairs_((28,_30),_(19,_21)) - nodepairs_(28,_19)
 - nodepairs_(30,_19) <= 0
_C4246: edgepairs_((30,_31),_(19,_21)) - nodepairs_(30,_19)
 - nodepairs_(31,_19) <= 0
_C4247: edgepairs_((31,_32),_(19,_21)) - nodepairs_(31,_19)
 - nodepairs_(32,_19) <= 0
_C4248: edgepairs_((32,_33),_(19,_21)) - nodepairs_(32,_19)
 - nodepairs_(33,_19) <= 0
_C4249: edgepairs_((33,_34),_(19,_21)) - nodepairs_(33,_19)
 - nodepairs_(34,_19) <= 0
_C425: edgepairs_((3,_5),_(44,_45)) - nodepairs_(3,_44) - nodepairs_(3,_45)
 <= 0
_C4250: edgepairs_((34,_35),_(19,_21)) - nodepairs_(34,_19)
 - nodepairs_(35,_19) <= 0
_C4251: edgepairs_((35,_36),_(19,_21)) - nodepairs_(35,_19)
 - nodepairs_(36,_19) <= 0
_C4252: edgepairs_((36,_37),_(19,_21)) - nodepairs_(36,_19)
 - nodepairs_(37,_19) <= 0
_C4253: edgepairs_((37,_38),_(19,_21)) - nodepairs_(37,_19)
 - nodepairs_(38,_19) <= 0
_C4254: edgepairs_((38,_39),_(19,_21)) - nodepairs_(38,_19)
 - nodepairs_(39,_19) <= 0
_C4255: edgepairs_((39,_40),_(19,_21)) - nodepairs_(39,_19)
 - nodepairs_(40,_19) <= 0
_C4256: edgepairs_((40,_41),_(19,_21)) - nodepairs_(40,_19)
 - nodepairs_(41,_19) <= 0
_C4257: edgepairs_((40,_42),_(19,_21)) - nodepairs_(40,_19)
 - nodepairs_(42,_19) <= 0
_C4258: edgepairs_((43,_44),_(18,_19)) + edgepairs_((43,_44),_(19,_20))
 - nodepairs_(44,_19) <= 0
_C4259: edgepairs_((44,_45),_(18,_19)) + edgepairs_((44,_45),_(19,_20))
 - nodepairs_(44,_19) <= 0
_C426: edgepairs_((3,_5),_(45,_46)) - nodepairs_(3,_45) - nodepairs_(3,_46)
 <= 0
_C4260: edgepairs_((44,_46),_(19,_21)) - nodepairs_(44,_19)
 - nodepairs_(46,_19) <= 0
_C4261: edgepairs_((46,_47),_(19,_21)) - nodepairs_(46,_19)
 - nodepairs_(47,_19) <= 0
_C4262: edgepairs_((47,_48),_(19,_21)) - nodepairs_(47,_19)
 - nodepairs_(48,_19) <= 0
_C4263: edgepairs_((48,_49),_(19,_21)) - nodepairs_(48,_19)
 - nodepairs_(49,_19) <= 0
_C4264: edgepairs_((49,_50),_(19,_21)) - nodepairs_(49,_19)
 - nodepairs_(50,_19) <= 0
_C4265: edgepairs_((50,_51),_(19,_21)) - nodepairs_(50,_19)
 - nodepairs_(51,_19) <= 0
_C4266: edgepairs_((51,_52),_(19,_21)) - nodepairs_(51,_19)
 - nodepairs_(52,_19) <= 0
_C4267: edgepairs_((52,_53),_(19,_21)) - nodepairs_(52,_19)
 - nodepairs_(53,_19) <= 0
_C4268: edgepairs_((53,_54),_(19,_21)) - nodepairs_(53,_19)
 - nodepairs_(54,_19) <= 0
_C4269: __dummy <= 0
_C427: edgepairs_((3,_5),_(46,_47)) - nodepairs_(3,_46) - nodepairs_(3,_47)
 <= 0
_C4270: __dummy <= 0
_C4271: edgepairs_((0,_43),_(19,_20)) - nodepairs_(43,_20) <= 0
_C4272: edgepairs_((1,_2),_(19,_20)) - nodepairs_(2,_20) <= 0
_C4273: edgepairs_((2,_3),_(19,_20)) - nodepairs_(2,_20) <= 0
_C4274: edgepairs_((3,_4),_(19,_20)) - nodepairs_(4,_20) <= 0
_C4275: __dummy <= 0
_C4276: __dummy <= 0
_C4277: __dummy <= 0
_C4278: __dummy <= 0
_C4279: __dummy <= 0
_C428: edgepairs_((3,_5),_(47,_48)) - nodepairs_(3,_47) - nodepairs_(3,_48)
 <= 0
_C4280: __dummy <= 0
_C4281: __dummy <= 0
_C4282: __dummy <= 0
_C4283: __dummy <= 0
_C4284: __dummy <= 0
_C4285: __dummy <= 0
_C4286: __dummy <= 0
_C4287: __dummy <= 0
_C4288: __dummy <= 0
_C4289: __dummy <= 0
_C429: edgepairs_((3,_5),_(48,_49)) - nodepairs_(3,_48) - nodepairs_(3,_49)
 <= 0
_C4290: __dummy <= 0
_C4291: __dummy <= 0
_C4292: __dummy <= 0
_C4293: __dummy <= 0
_C4294: __dummy <= 0
_C4295: __dummy <= 0
_C4296: edgepairs_((26,_27),_(19,_20)) - nodepairs_(27,_20) <= 0
_C4297: edgepairs_((27,_28),_(19,_20)) - nodepairs_(27,_20) <= 0
_C4298: edgepairs_((28,_29),_(19,_20)) - nodepairs_(29,_20) <= 0
_C4299: __dummy <= 0
_C43: nodepairs_(42,_0) + nodepairs_(42,_1) + nodepairs_(42,_10)
 + nodepairs_(42,_11) + nodepairs_(42,_12) + nodepairs_(42,_13)
 + nodepairs_(42,_14) + nodepairs_(42,_15) + nodepairs_(42,_16)
 + nodepairs_(42,_17) + nodepairs_(42,_19) + nodepairs_(42,_21)
 + nodepairs_(42,_22) + nodepairs_(42,_23) + nodepairs_(42,_24)
 + nodepairs_(42,_25) + nodepairs_(42,_26) + nodepairs_(42,_27)
 + nodepairs_(42,_28) + nodepairs_(42,_29) + nodepairs_(42,_3)
 + nodepairs_(42,_30) + nodepairs_(42,_31) + nodepairs_(42,_32)
 + nodepairs_(42,_33) + nodepairs_(42,_34) + nodepairs_(42,_35)
 + nodepairs_(42,_36) + nodepairs_(42,_37) + nodepairs_(42,_38)
 + nodepairs_(42,_39) + nodepairs_(42,_40) + nodepairs_(42,_42)
 + nodepairs_(42,_44) + nodepairs_(42,_45) + nodepairs_(42,_46)
 + nodepairs_(42,_47) + nodepairs_(42,_48) + nodepairs_(42,_49)
 + nodepairs_(42,_5) + nodepairs_(42,_50) + nodepairs_(42,_51)
 + nodepairs_(42,_52) + nodepairs_(42,_53) + nodepairs_(42,_54)
 + nodepairs_(42,_6) + nodepairs_(42,_7) + nodepairs_(42,_8)
 + nodepairs_(42,_9) <= 1
_C430: edgepairs_((3,_5),_(49,_50)) - nodepairs_(3,_49) - nodepairs_(3,_50)
 <= 0
_C4300: __dummy <= 0
_C4301: __dummy <= 0
_C4302: __dummy <= 0
_C4303: __dummy <= 0
_C4304: __dummy <= 0
_C4305: __dummy <= 0
_C4306: __dummy <= 0
_C4307: __dummy <= 0
_C4308: __dummy <= 0
_C4309: __dummy <= 0
_C431: edgepairs_((3,_5),_(50,_51)) - nodepairs_(3,_50) - nodepairs_(3,_51)
 <= 0
_C4310: __dummy <= 0
_C4311: __dummy <= 0
_C4312: edgepairs_((43,_44),_(19,_20)) - nodepairs_(43,_20) <= 0
_C4313: edgepairs_((44,_45),_(19,_20)) - nodepairs_(45,_20) <= 0
_C4314: __dummy <= 0
_C4315: __dummy <= 0
_C4316: __dummy <= 0
_C4317: __dummy <= 0
_C4318: __dummy <= 0
_C4319: __dummy <= 0
_C432: edgepairs_((3,_5),_(51,_52)) - nodepairs_(3,_51) - nodepairs_(3,_52)
 <= 0
_C4320: __dummy <= 0
_C4321: __dummy <= 0
_C4322: __dummy <= 0
_C4323: edgepairs_((0,_1),_(19,_21)) + edgepairs_((0,_1),_(21,_22))
 - nodepairs_(0,_21) - nodepairs_(1,_21) <= 0
_C4324: edgepairs_((0,_26),_(19,_21)) + edgepairs_((0,_26),_(21,_22))
 - nodepairs_(0,_21) - nodepairs_(26,_21) <= 0
_C4325: - nodepairs_(0,_21) <= 0
_C4326: - nodepairs_(1,_21) <= 0
_C4327: - nodepairs_(3,_21) <= 0
_C4328: - nodepairs_(3,_21) <= 0
_C4329: edgepairs_((3,_5),_(19,_21)) + edgepairs_((3,_5),_(21,_22))
 - nodepairs_(3,_21) - nodepairs_(5,_21) <= 0
_C433: edgepairs_((3,_5),_(52,_53)) - nodepairs_(3,_52) - nodepairs_(3,_53)
 <= 0
_C4330: edgepairs_((5,_6),_(19,_21)) + edgepairs_((5,_6),_(21,_22))
 - nodepairs_(5,_21) - nodepairs_(6,_21) <= 0
_C4331: edgepairs_((6,_7),_(19,_21)) + edgepairs_((6,_7),_(21,_22))
 - nodepairs_(6,_21) - nodepairs_(7,_21) <= 0
_C4332: edgepairs_((7,_8),_(19,_21)) + edgepairs_((7,_8),_(21,_22))
 - nodepairs_(7,_21) - nodepairs_(8,_21) <= 0
_C4333: edgepairs_((8,_9),_(19,_21)) + edgepairs_((8,_9),_(21,_22))
 - nodepairs_(8,_21) - nodepairs_(9,_21) <= 0
_C4334: edgepairs_((9,_10),_(19,_21)) + edgepairs_((9,_10),_(21,_22))
 - nodepairs_(10,_21) - nodepairs_(9,_21) <= 0
_C4335: edgepairs_((10,_11),_(19,_21)) + edgepairs_((10,_11),_(21,_22))
 - nodepairs_(10,_21) - nodepairs_(11,_21) <= 0
_C4336: edgepairs_((11,_12),_(19,_21)) + edgepairs_((11,_12),_(21,_22))
 - nodepairs_(11,_21) - nodepairs_(12,_21) <= 0
_C4337: edgepairs_((12,_13),_(19,_21)) + edgepairs_((12,_13),_(21,_22))
 - nodepairs_(12,_21) - nodepairs_(13,_21) <= 0
_C4338: edgepairs_((13,_14),_(19,_21)) + edgepairs_((13,_14),_(21,_22))
 - nodepairs_(13,_21) - nodepairs_(14,_21) <= 0
_C4339: edgepairs_((14,_15),_(19,_21)) + edgepairs_((14,_15),_(21,_22))
 - nodepairs_(14,_21) - nodepairs_(15,_21) <= 0
_C434: edgepairs_((3,_5),_(53,_54)) - nodepairs_(3,_53) - nodepairs_(3,_54)
 <= 0
_C4340: edgepairs_((15,_16),_(19,_21)) + edgepairs_((15,_16),_(21,_22))
 - nodepairs_(15,_21) - nodepairs_(16,_21) <= 0
_C4341: edgepairs_((16,_17),_(19,_21)) + edgepairs_((16,_17),_(21,_22))
 - nodepairs_(16,_21) - nodepairs_(17,_21) <= 0
_C4342: edgepairs_((17,_18),_(19,_21)) + edgepairs_((17,_18),_(21,_22))
 - nodepairs_(17,_21) - nodepairs_(18,_21) <= 0
_C4343: edgepairs_((18,_19),_(19,_21)) + edgepairs_((18,_19),_(21,_22))
 - nodepairs_(18,_21) - nodepairs_(19,_21) <= 0
_C4344: edgepairs_((19,_20),_(19,_21)) + edgepairs_((19,_20),_(21,_22))
 - nodepairs_(19,_21) - nodepairs_(20,_21) <= 0
_C4345: edgepairs_((20,_21),_(19,_21)) + edgepairs_((20,_21),_(21,_22))
 - nodepairs_(20,_21) - nodepairs_(21,_21) <= 0
_C4346: edgepairs_((21,_22),_(19,_21)) + edgepairs_((21,_22),_(21,_22))
 - nodepairs_(21,_21) - nodepairs_(22,_21) <= 0
_C4347: edgepairs_((22,_23),_(19,_21)) + edgepairs_((22,_23),_(21,_22))
 - nodepairs_(22,_21) - nodepairs_(23,_21) <= 0
_C4348: edgepairs_((23,_24),_(19,_21)) + edgepairs_((23,_24),_(21,_22))
 - nodepairs_(23,_21) - nodepairs_(24,_21) <= 0
_C4349: edgepairs_((23,_25),_(19,_21)) + edgepairs_((23,_25),_(21,_22))
 - nodepairs_(23,_21) - nodepairs_(25,_21) <= 0
_C435: __dummy <= 0
_C4350: - nodepairs_(26,_21) <= 0
_C4351: - nodepairs_(28,_21) <= 0
_C4352: - nodepairs_(28,_21) <= 0
_C4353: edgepairs_((28,_30),_(19,_21)) + edgepairs_((28,_30),_(21,_22))
 - nodepairs_(28,_21) - nodepairs_(30,_21) <= 0
_C4354: edgepairs_((30,_31),_(19,_21)) + edgepairs_((30,_31),_(21,_22))
 - nodepairs_(30,_21) - nodepairs_(31,_21) <= 0
_C4355: edgepairs_((31,_32),_(19,_21)) + edgepairs_((31,_32),_(21,_22))
 - nodepairs_(31,_21) - nodepairs_(32,_21) <= 0
_C4356: edgepairs_((32,_33),_(19,_21)) + edgepairs_((32,_33),_(21,_22))
 - nodepairs_(32,_21) - nodepairs_(33,_21) <= 0
_C4357: edgepairs_((33,_34),_(19,_21)) + edgepairs_((33,_34),_(21,_22))
 - nodepairs_(33,_21) - nodepairs_(34,_21) <= 0
_C4358: edgepairs_((34,_35),_(19,_21)) + edgepairs_((34,_35),_(21,_22))
 - nodepairs_(34,_21) - nodepairs_(35,_21) <= 0
_C4359: edgepairs_((35,_36),_(19,_21)) + edgepairs_((35,_36),_(21,_22))
 - nodepairs_(35,_21) - nodepairs_(36,_21) <= 0
_C436: __dummy <= 0
_C4360: edgepairs_((36,_37),_(19,_21)) + edgepairs_((36,_37),_(21,_22))
 - nodepairs_(36,_21) - nodepairs_(37,_21) <= 0
_C4361: edgepairs_((37,_38),_(19,_21)) + edgepairs_((37,_38),_(21,_22))
 - nodepairs_(37,_21) - nodepairs_(38,_21) <= 0
_C4362: edgepairs_((38,_39),_(19,_21)) + edgepairs_((38,_39),_(21,_22))
 - nodepairs_(38,_21) - nodepairs_(39,_21) <= 0
_C4363: edgepairs_((39,_40),_(19,_21)) + edgepairs_((39,_40),_(21,_22))
 - nodepairs_(39,_21) - nodepairs_(40,_21) <= 0
_C4364: edgepairs_((40,_41),_(19,_21)) + edgepairs_((40,_41),_(21,_22))
 - nodepairs_(40,_21) - nodepairs_(41,_21) <= 0
_C4365: edgepairs_((40,_42),_(19,_21)) + edgepairs_((40,_42),_(21,_22))
 - nodepairs_(40,_21) - nodepairs_(42,_21) <= 0
_C4366: - nodepairs_(44,_21) <= 0
_C4367: - nodepairs_(44,_21) <= 0
_C4368: edgepairs_((44,_46),_(19,_21)) + edgepairs_((44,_46),_(21,_22))
 - nodepairs_(44,_21) - nodepairs_(46,_21) <= 0
_C4369: edgepairs_((46,_47),_(19,_21)) + edgepairs_((46,_47),_(21,_22))
 - nodepairs_(46,_21) - nodepairs_(47,_21) <= 0
_C437: edgepairs_((3,_4),_(0,_41)) - nodepairs_(4,_41) <= 0
_C4370: edgepairs_((47,_48),_(19,_21)) + edgepairs_((47,_48),_(21,_22))
 - nodepairs_(47,_21) - nodepairs_(48,_21) <= 0
_C4371: edgepairs_((48,_49),_(19,_21)) + edgepairs_((48,_49),_(21,_22))
 - nodepairs_(48,_21) - nodepairs_(49,_21) <= 0
_C4372: edgepairs_((49,_50),_(19,_21)) + edgepairs_((49,_50),_(21,_22))
 - nodepairs_(49,_21) - nodepairs_(50,_21) <= 0
_C4373: edgepairs_((50,_51),_(19,_21)) + edgepairs_((50,_51),_(21,_22))
 - nodepairs_(50,_21) - nodepairs_(51,_21) <= 0
_C4374: edgepairs_((51,_52),_(19,_21)) + edgepairs_((51,_52),_(21,_22))
 - nodepairs_(51,_21) - nodepairs_(52,_21) <= 0
_C4375: edgepairs_((52,_53),_(19,_21)) + edgepairs_((52,_53),_(21,_22))
 - nodepairs_(52,_21) - nodepairs_(53,_21) <= 0
_C4376: edgepairs_((53,_54),_(19,_21)) + edgepairs_((53,_54),_(21,_22))
 - nodepairs_(53,_21) - nodepairs_(54,_21) <= 0
_C4377: edgepairs_((0,_1),_(21,_22)) + edgepairs_((0,_1),_(22,_23))
 - nodepairs_(0,_22) - nodepairs_(1,_22) <= 0
_C4378: edgepairs_((0,_26),_(21,_22)) + edgepairs_((0,_26),_(22,_23))
 - nodepairs_(0,_22) - nodepairs_(26,_22) <= 0
_C4379: - nodepairs_(0,_22) <= 0
_C438: edgepairs_((3,_4),_(1,_2)) - nodepairs_(4,_2) <= 0
_C4380: - nodepairs_(1,_22) <= 0
_C4381: - nodepairs_(3,_22) <= 0
_C4382: - nodepairs_(3,_22) <= 0
_C4383: edgepairs_((3,_5),_(21,_22)) + edgepairs_((3,_5),_(22,_23))
 - nodepairs_(3,_22) - nodepairs_(5,_22) <= 0
_C4384: edgepairs_((5,_6),_(21,_22)) + edgepairs_((5,_6),_(22,_23))
 - nodepairs_(5,_22) - nodepairs_(6,_22) <= 0
_C4385: edgepairs_((6,_7),_(21,_22)) + edgepairs_((6,_7),_(22,_23))
 - nodepairs_(6,_22) - nodepairs_(7,_22) <= 0
_C4386: edgepairs_((7,_8),_(21,_22)) + edgepairs_((7,_8),_(22,_23))
 - nodepairs_(7,_22) - nodepairs_(8,_22) <= 0
_C4387: edgepairs_((8,_9),_(21,_22)) + edgepairs_((8,_9),_(22,_23))
 - nodepairs_(8,_22) - nodepairs_(9,_22) <= 0
_C4388: edgepairs_((9,_10),_(21,_22)) + edgepairs_((9,_10),_(22,_23))
 - nodepairs_(10,_22) - nodepairs_(9,_22) <= 0
_C4389: edgepairs_((10,_11),_(21,_22)) + edgepairs_((10,_11),_(22,_23))
 - nodepairs_(10,_22) - nodepairs_(11,_22) <= 0
_C439: edgepairs_((3,_4),_(2,_3)) - nodepairs_(4,_2) <= 0
_C4390: edgepairs_((11,_12),_(21,_22)) + edgepairs_((11,_12),_(22,_23))
 - nodepairs_(11,_22) - nodepairs_(12,_22) <= 0
_C4391: edgepairs_((12,_13),_(21,_22)) + edgepairs_((12,_13),_(22,_23))
 - nodepairs_(12,_22) - nodepairs_(13,_22) <= 0
_C4392: edgepairs_((13,_14),_(21,_22)) + edgepairs_((13,_14),_(22,_23))
 - nodepairs_(13,_22) - nodepairs_(14,_22) <= 0
_C4393: edgepairs_((14,_15),_(21,_22)) + edgepairs_((14,_15),_(22,_23))
 - nodepairs_(14,_22) - nodepairs_(15,_22) <= 0
_C4394: edgepairs_((15,_16),_(21,_22)) + edgepairs_((15,_16),_(22,_23))
 - nodepairs_(15,_22) - nodepairs_(16,_22) <= 0
_C4395: edgepairs_((16,_17),_(21,_22)) + edgepairs_((16,_17),_(22,_23))
 - nodepairs_(16,_22) - nodepairs_(17,_22) <= 0
_C4396: edgepairs_((17,_18),_(21,_22)) + edgepairs_((17,_18),_(22,_23))
 - nodepairs_(17,_22) - nodepairs_(18,_22) <= 0
_C4397: edgepairs_((18,_19),_(21,_22)) + edgepairs_((18,_19),_(22,_23))
 - nodepairs_(18,_22) - nodepairs_(19,_22) <= 0
_C4398: edgepairs_((19,_20),_(21,_22)) + edgepairs_((19,_20),_(22,_23))
 - nodepairs_(19,_22) - nodepairs_(20,_22) <= 0
_C4399: edgepairs_((20,_21),_(21,_22)) + edgepairs_((20,_21),_(22,_23))
 - nodepairs_(20,_22) - nodepairs_(21,_22) <= 0
_C44: nodepairs_(43,_18) + nodepairs_(43,_2) + nodepairs_(43,_20)
 + nodepairs_(43,_4) + nodepairs_(43,_41) + nodepairs_(43,_43) <= 1
_C440: edgepairs_((3,_4),_(3,_4)) - nodepairs_(4,_4) <= 0
_C4400: edgepairs_((21,_22),_(21,_22)) + edgepairs_((21,_22),_(22,_23))
 - nodepairs_(21,_22) - nodepairs_(22,_22) <= 0
_C4401: edgepairs_((22,_23),_(21,_22)) + edgepairs_((22,_23),_(22,_23))
 - nodepairs_(22,_22) - nodepairs_(23,_22) <= 0
_C4402: edgepairs_((23,_24),_(21,_22)) + edgepairs_((23,_24),_(22,_23))
 - nodepairs_(23,_22) - nodepairs_(24,_22) <= 0
_C4403: edgepairs_((23,_25),_(21,_22)) + edgepairs_((23,_25),_(22,_23))
 - nodepairs_(23,_22) - nodepairs_(25,_22) <= 0
_C4404: - nodepairs_(26,_22) <= 0
_C4405: - nodepairs_(28,_22) <= 0
_C4406: - nodepairs_(28,_22) <= 0
_C4407: edgepairs_((28,_30),_(21,_22)) + edgepairs_((28,_30),_(22,_23))
 - nodepairs_(28,_22) - nodepairs_(30,_22) <= 0
_C4408: edgepairs_((30,_31),_(21,_22)) + edgepairs_((30,_31),_(22,_23))
 - nodepairs_(30,_22) - nodepairs_(31,_22) <= 0
_C4409: edgepairs_((31,_32),_(21,_22)) + edgepairs_((31,_32),_(22,_23))
 - nodepairs_(31,_22) - nodepairs_(32,_22) <= 0
_C441: __dummy <= 0
_C4410: edgepairs_((32,_33),_(21,_22)) + edgepairs_((32,_33),_(22,_23))
 - nodepairs_(32,_22) - nodepairs_(33,_22) <= 0
_C4411: edgepairs_((33,_34),_(21,_22)) + edgepairs_((33,_34),_(22,_23))
 - nodepairs_(33,_22) - nodepairs_(34,_22) <= 0
_C4412: edgepairs_((34,_35),_(21,_22)) + edgepairs_((34,_35),_(22,_23))
 - nodepairs_(34,_22) - nodepairs_(35,_22) <= 0
_C4413: edgepairs_((35,_36),_(21,_22)) + edgepairs_((35,_36),_(22,_23))
 - nodepairs_(35,_22) - nodepairs_(36,_22) <= 0
_C4414: edgepairs_((36,_37),_(21,_22)) + edgepairs_((36,_37),_(22,_23))
 - nodepairs_(36,_22) - nodepairs_(37,_22) <= 0
_C4415: edgepairs_((37,_38),_(21,_22)) + edgepairs_((37,_38),_(22,_23))
 - nodepairs_(37,_22) - nodepairs_(38,_22) <= 0
_C4416: edgepairs_((38,_39),_(21,_22)) + edgepairs_((38,_39),_(22,_23))
 - nodepairs_(38,_22) - nodepairs_(39,_22) <= 0
_C4417: edgepairs_((39,_40),_(21,_22)) + edgepairs_((39,_40),_(22,_23))
 - nodepairs_(39,_22) - nodepairs_(40,_22) <= 0
_C4418: edgepairs_((40,_41),_(21,_22)) + edgepairs_((40,_41),_(22,_23))
 - nodepairs_(40,_22) - nodepairs_(41,_22) <= 0
_C4419: edgepairs_((40,_42),_(21,_22)) + edgepairs_((40,_42),_(22,_23))
 - nodepairs_(40,_22) - nodepairs_(42,_22) <= 0
_C442: __dummy <= 0
_C4420: - nodepairs_(44,_22) <= 0
_C4421: - nodepairs_(44,_22) <= 0
_C4422: edgepairs_((44,_46),_(21,_22)) + edgepairs_((44,_46),_(22,_23))
 - nodepairs_(44,_22) - nodepairs_(46,_22) <= 0
_C4423: edgepairs_((46,_47),_(21,_22)) + edgepairs_((46,_47),_(22,_23))
 - nodepairs_(46,_22) - nodepairs_(47,_22) <= 0
_C4424: edgepairs_((47,_48),_(21,_22)) + edgepairs_((47,_48),_(22,_23))
 - nodepairs_(47,_22) - nodepairs_(48,_22) <= 0
_C4425: edgepairs_((48,_49),_(21,_22)) + edgepairs_((48,_49),_(22,_23))
 - nodepairs_(48,_22) - nodepairs_(49,_22) <= 0
_C4426: edgepairs_((49,_50),_(21,_22)) + edgepairs_((49,_50),_(22,_23))
 - nodepairs_(49,_22) - nodepairs_(50,_22) <= 0
_C4427: edgepairs_((50,_51),_(21,_22)) + edgepairs_((50,_51),_(22,_23))
 - nodepairs_(50,_22) - nodepairs_(51,_22) <= 0
_C4428: edgepairs_((51,_52),_(21,_22)) + edgepairs_((51,_52),_(22,_23))
 - nodepairs_(51,_22) - nodepairs_(52,_22) <= 0
_C4429: edgepairs_((52,_53),_(21,_22)) + edgepairs_((52,_53),_(22,_23))
 - nodepairs_(52,_22) - nodepairs_(53,_22) <= 0
_C443: __dummy <= 0
_C4430: edgepairs_((53,_54),_(21,_22)) + edgepairs_((53,_54),_(22,_23))
 - nodepairs_(53,_22) - nodepairs_(54,_22) <= 0
_C4431: edgepairs_((0,_1),_(22,_23)) + edgepairs_((0,_1),_(23,_24))
 - nodepairs_(0,_23) - nodepairs_(1,_23) <= 0
_C4432: edgepairs_((0,_26),_(22,_23)) + edgepairs_((0,_26),_(23,_24))
 - nodepairs_(0,_23) - nodepairs_(26,_23) <= 0
_C4433: - nodepairs_(0,_23) <= 0
_C4434: - nodepairs_(1,_23) <= 0
_C4435: - nodepairs_(3,_23) <= 0
_C4436: - nodepairs_(3,_23) <= 0
_C4437: edgepairs_((3,_5),_(22,_23)) + edgepairs_((3,_5),_(23,_24))
 - nodepairs_(3,_23) - nodepairs_(5,_23) <= 0
_C4438: edgepairs_((5,_6),_(22,_23)) + edgepairs_((5,_6),_(23,_24))
 - nodepairs_(5,_23) - nodepairs_(6,_23) <= 0
_C4439: edgepairs_((6,_7),_(22,_23)) + edgepairs_((6,_7),_(23,_24))
 - nodepairs_(6,_23) - nodepairs_(7,_23) <= 0
_C444: __dummy <= 0
_C4440: edgepairs_((7,_8),_(22,_23)) + edgepairs_((7,_8),_(23,_24))
 - nodepairs_(7,_23) - nodepairs_(8,_23) <= 0
_C4441: edgepairs_((8,_9),_(22,_23)) + edgepairs_((8,_9),_(23,_24))
 - nodepairs_(8,_23) - nodepairs_(9,_23) <= 0
_C4442: edgepairs_((9,_10),_(22,_23)) + edgepairs_((9,_10),_(23,_24))
 - nodepairs_(10,_23) - nodepairs_(9,_23) <= 0
_C4443: edgepairs_((10,_11),_(22,_23)) + edgepairs_((10,_11),_(23,_24))
 - nodepairs_(10,_23) - nodepairs_(11,_23) <= 0
_C4444: edgepairs_((11,_12),_(22,_23)) + edgepairs_((11,_12),_(23,_24))
 - nodepairs_(11,_23) - nodepairs_(12,_23) <= 0
_C4445: edgepairs_((12,_13),_(22,_23)) + edgepairs_((12,_13),_(23,_24))
 - nodepairs_(12,_23) - nodepairs_(13,_23) <= 0
_C4446: edgepairs_((13,_14),_(22,_23)) + edgepairs_((13,_14),_(23,_24))
 - nodepairs_(13,_23) - nodepairs_(14,_23) <= 0
_C4447: edgepairs_((14,_15),_(22,_23)) + edgepairs_((14,_15),_(23,_24))
 - nodepairs_(14,_23) - nodepairs_(15,_23) <= 0
_C4448: edgepairs_((15,_16),_(22,_23)) + edgepairs_((15,_16),_(23,_24))
 - nodepairs_(15,_23) - nodepairs_(16,_23) <= 0
_C4449: edgepairs_((16,_17),_(22,_23)) + edgepairs_((16,_17),_(23,_24))
 - nodepairs_(16,_23) - nodepairs_(17,_23) <= 0
_C445: __dummy <= 0
_C4450: edgepairs_((17,_18),_(22,_23)) + edgepairs_((17,_18),_(23,_24))
 - nodepairs_(17,_23) - nodepairs_(18,_23) <= 0
_C4451: edgepairs_((18,_19),_(22,_23)) + edgepairs_((18,_19),_(23,_24))
 - nodepairs_(18,_23) - nodepairs_(19,_23) <= 0
_C4452: edgepairs_((19,_20),_(22,_23)) + edgepairs_((19,_20),_(23,_24))
 - nodepairs_(19,_23) - nodepairs_(20,_23) <= 0
_C4453: edgepairs_((20,_21),_(22,_23)) + edgepairs_((20,_21),_(23,_24))
 - nodepairs_(20,_23) - nodepairs_(21,_23) <= 0
_C4454: edgepairs_((21,_22),_(22,_23)) + edgepairs_((21,_22),_(23,_24))
 - nodepairs_(21,_23) - nodepairs_(22,_23) <= 0
_C4455: edgepairs_((22,_23),_(22,_23)) + edgepairs_((22,_23),_(23,_24))
 - nodepairs_(22,_23) - nodepairs_(23,_23) <= 0
_C4456: edgepairs_((23,_24),_(22,_23)) + edgepairs_((23,_24),_(23,_24))
 - nodepairs_(23,_23) - nodepairs_(24,_23) <= 0
_C4457: edgepairs_((23,_25),_(22,_23)) + edgepairs_((23,_25),_(23,_24))
 - nodepairs_(23,_23) - nodepairs_(25,_23) <= 0
_C4458: - nodepairs_(26,_23) <= 0
_C4459: - nodepairs_(28,_23) <= 0
_C446: __dummy <= 0
_C4460: - nodepairs_(28,_23) <= 0
_C4461: edgepairs_((28,_30),_(22,_23)) + edgepairs_((28,_30),_(23,_24))
 - nodepairs_(28,_23) - nodepairs_(30,_23) <= 0
_C4462: edgepairs_((30,_31),_(22,_23)) + edgepairs_((30,_31),_(23,_24))
 - nodepairs_(30,_23) - nodepairs_(31,_23) <= 0
_C4463: edgepairs_((31,_32),_(22,_23)) + edgepairs_((31,_32),_(23,_24))
 - nodepairs_(31,_23) - nodepairs_(32,_23) <= 0
_C4464: edgepairs_((32,_33),_(22,_23)) + edgepairs_((32,_33),_(23,_24))
 - nodepairs_(32,_23) - nodepairs_(33,_23) <= 0
_C4465: edgepairs_((33,_34),_(22,_23)) + edgepairs_((33,_34),_(23,_24))
 - nodepairs_(33,_23) - nodepairs_(34,_23) <= 0
_C4466: edgepairs_((34,_35),_(22,_23)) + edgepairs_((34,_35),_(23,_24))
 - nodepairs_(34,_23) - nodepairs_(35,_23) <= 0
_C4467: edgepairs_((35,_36),_(22,_23)) + edgepairs_((35,_36),_(23,_24))
 - nodepairs_(35,_23) - nodepairs_(36,_23) <= 0
_C4468: edgepairs_((36,_37),_(22,_23)) + edgepairs_((36,_37),_(23,_24))
 - nodepairs_(36,_23) - nodepairs_(37,_23) <= 0
_C4469: edgepairs_((37,_38),_(22,_23)) + edgepairs_((37,_38),_(23,_24))
 - nodepairs_(37,_23) - nodepairs_(38,_23) <= 0
_C447: __dummy <= 0
_C4470: edgepairs_((38,_39),_(22,_23)) + edgepairs_((38,_39),_(23,_24))
 - nodepairs_(38,_23) - nodepairs_(39,_23) <= 0
_C4471: edgepairs_((39,_40),_(22,_23)) + edgepairs_((39,_40),_(23,_24))
 - nodepairs_(39,_23) - nodepairs_(40,_23) <= 0
_C4472: edgepairs_((40,_41),_(22,_23)) + edgepairs_((40,_41),_(23,_24))
 - nodepairs_(40,_23) - nodepairs_(41,_23) <= 0
_C4473: edgepairs_((40,_42),_(22,_23)) + edgepairs_((40,_42),_(23,_24))
 - nodepairs_(40,_23) - nodepairs_(42,_23) <= 0
_C4474: - nodepairs_(44,_23) <= 0
_C4475: - nodepairs_(44,_23) <= 0
_C4476: edgepairs_((44,_46),_(22,_23)) + edgepairs_((44,_46),_(23,_24))
 - nodepairs_(44,_23) - nodepairs_(46,_23) <= 0
_C4477: edgepairs_((46,_47),_(22,_23)) + edgepairs_((46,_47),_(23,_24))
 - nodepairs_(46,_23) - nodepairs_(47,_23) <= 0
_C4478: edgepairs_((47,_48),_(22,_23)) + edgepairs_((47,_48),_(23,_24))
 - nodepairs_(47,_23) - nodepairs_(48,_23) <= 0
_C4479: edgepairs_((48,_49),_(22,_23)) + edgepairs_((48,_49),_(23,_24))
 - nodepairs_(48,_23) - nodepairs_(49,_23) <= 0
_C448: __dummy <= 0
_C4480: edgepairs_((49,_50),_(22,_23)) + edgepairs_((49,_50),_(23,_24))
 - nodepairs_(49,_23) - nodepairs_(50,_23) <= 0
_C4481: edgepairs_((50,_51),_(22,_23)) + edgepairs_((50,_51),_(23,_24))
 - nodepairs_(50,_23) - nodepairs_(51,_23) <= 0
_C4482: edgepairs_((51,_52),_(22,_23)) + edgepairs_((51,_52),_(23,_24))
 - nodepairs_(51,_23) - nodepairs_(52,_23) <= 0
_C4483: edgepairs_((52,_53),_(22,_23)) + edgepairs_((52,_53),_(23,_24))
 - nodepairs_(52,_23) - nodepairs_(53,_23) <= 0
_C4484: edgepairs_((53,_54),_(22,_23)) + edgepairs_((53,_54),_(23,_24))
 - nodepairs_(53,_23) - nodepairs_(54,_23) <= 0
_C4485: edgepairs_((0,_1),_(23,_24)) + edgepairs_((0,_1),_(24,_25))
 - nodepairs_(0,_24) - nodepairs_(1,_24) <= 0
_C4486: edgepairs_((0,_26),_(23,_24)) + edgepairs_((0,_26),_(24,_25))
 - nodepairs_(0,_24) - nodepairs_(26,_24) <= 0
_C4487: - nodepairs_(0,_24) <= 0
_C4488: - nodepairs_(1,_24) <= 0
_C4489: - nodepairs_(3,_24) <= 0
_C449: __dummy <= 0
_C4490: - nodepairs_(3,_24) <= 0
_C4491: edgepairs_((3,_5),_(23,_24)) + edgepairs_((3,_5),_(24,_25))
 - nodepairs_(3,_24) - nodepairs_(5,_24) <= 0
_C4492: edgepairs_((5,_6),_(23,_24)) + edgepairs_((5,_6),_(24,_25))
 - nodepairs_(5,_24) - nodepairs_(6,_24) <= 0
_C4493: edgepairs_((6,_7),_(23,_24)) + edgepairs_((6,_7),_(24,_25))
 - nodepairs_(6,_24) - nodepairs_(7,_24) <= 0
_C4494: edgepairs_((7,_8),_(23,_24)) + edgepairs_((7,_8),_(24,_25))
 - nodepairs_(7,_24) - nodepairs_(8,_24) <= 0
_C4495: edgepairs_((8,_9),_(23,_24)) + edgepairs_((8,_9),_(24,_25))
 - nodepairs_(8,_24) - nodepairs_(9,_24) <= 0
_C4496: edgepairs_((9,_10),_(23,_24)) + edgepairs_((9,_10),_(24,_25))
 - nodepairs_(10,_24) - nodepairs_(9,_24) <= 0
_C4497: edgepairs_((10,_11),_(23,_24)) + edgepairs_((10,_11),_(24,_25))
 - nodepairs_(10,_24) - nodepairs_(11,_24) <= 0
_C4498: edgepairs_((11,_12),_(23,_24)) + edgepairs_((11,_12),_(24,_25))
 - nodepairs_(11,_24) - nodepairs_(12,_24) <= 0
_C4499: edgepairs_((12,_13),_(23,_24)) + edgepairs_((12,_13),_(24,_25))
 - nodepairs_(12,_24) - nodepairs_(13,_24) <= 0
_C45: nodepairs_(44,_0) + nodepairs_(44,_1) + nodepairs_(44,_10)
 + nodepairs_(44,_11) + nodepairs_(44,_12) + nodepairs_(44,_13)
 + nodepairs_(44,_14) + nodepairs_(44,_15) + nodepairs_(44,_16)
 + nodepairs_(44,_17) + nodepairs_(44,_19) + nodepairs_(44,_21)
 + nodepairs_(44,_22) + nodepairs_(44,_23) + nodepairs_(44,_24)
 + nodepairs_(44,_25) + nodepairs_(44,_26) + nodepairs_(44,_27)
 + nodepairs_(44,_28) + nodepairs_(44,_29) + nodepairs_(44,_3)
 + nodepairs_(44,_30) + nodepairs_(44,_31) + nodepairs_(44,_32)
 + nodepairs_(44,_33) + nodepairs_(44,_34) + nodepairs_(44,_35)
 + nodepairs_(44,_36) + nodepairs_(44,_37) + nodepairs_(44,_38)
 + nodepairs_(44,_39) + nodepairs_(44,_40) + nodepairs_(44,_42)
 + nodepairs_(44,_44) + nodepairs_(44,_45) + nodepairs_(44,_46)
 + nodepairs_(44,_47) + nodepairs_(44,_48) + nodepairs_(44,_49)
 + nodepairs_(44,_5) + nodepairs_(44,_50) + nodepairs_(44,_51)
 + nodepairs_(44,_52) + nodepairs_(44,_53) + nodepairs_(44,_54)
 + nodepairs_(44,_6) + nodepairs_(44,_7) + nodepairs_(44,_8)
 + nodepairs_(44,_9) <= 1
_C450: __dummy <= 0
_C4500: edgepairs_((13,_14),_(23,_24)) + edgepairs_((13,_14),_(24,_25))
 - nodepairs_(13,_24) - nodepairs_(14,_24) <= 0
_C4501: edgepairs_((14,_15),_(23,_24)) + edgepairs_((14,_15),_(24,_25))
 - nodepairs_(14,_24) - nodepairs_(15,_24) <= 0
_C4502: edgepairs_((15,_16),_(23,_24)) + edgepairs_((15,_16),_(24,_25))
 - nodepairs_(15,_24) - nodepairs_(16,_24) <= 0
_C4503: edgepairs_((16,_17),_(23,_24)) + edgepairs_((16,_17),_(24,_25))
 - nodepairs_(16,_24) - nodepairs_(17,_24) <= 0
_C4504: edgepairs_((17,_18),_(23,_24)) + edgepairs_((17,_18),_(24,_25))
 - nodepairs_(17,_24) - nodepairs_(18,_24) <= 0
_C4505: edgepairs_((18,_19),_(23,_24)) + edgepairs_((18,_19),_(24,_25))
 - nodepairs_(18,_24) - nodepairs_(19,_24) <= 0
_C4506: edgepairs_((19,_20),_(23,_24)) + edgepairs_((19,_20),_(24,_25))
 - nodepairs_(19,_24) - nodepairs_(20,_24) <= 0
_C4507: edgepairs_((20,_21),_(23,_24)) + edgepairs_((20,_21),_(24,_25))
 - nodepairs_(20,_24) - nodepairs_(21,_24) <= 0
_C4508: edgepairs_((21,_22),_(23,_24)) + edgepairs_((21,_22),_(24,_25))
 - nodepairs_(21,_24) - nodepairs_(22,_24) <= 0
_C4509: edgepairs_((22,_23),_(23,_24)) + edgepairs_((22,_23),_(24,_25))
 - nodepairs_(22,_24) - nodepairs_(23,_24) <= 0
_C451: __dummy <= 0
_C4510: edgepairs_((23,_24),_(23,_24)) + edgepairs_((23,_24),_(24,_25))
 - nodepairs_(23,_24) - nodepairs_(24,_24) <= 0
_C4511: edgepairs_((23,_25),_(23,_24)) + edgepairs_((23,_25),_(24,_25))
 - nodepairs_(23,_24) - nodepairs_(25,_24) <= 0
_C4512: - nodepairs_(26,_24) <= 0
_C4513: - nodepairs_(28,_24) <= 0
_C4514: - nodepairs_(28,_24) <= 0
_C4515: edgepairs_((28,_30),_(23,_24)) + edgepairs_((28,_30),_(24,_25))
 - nodepairs_(28,_24) - nodepairs_(30,_24) <= 0
_C4516: edgepairs_((30,_31),_(23,_24)) + edgepairs_((30,_31),_(24,_25))
 - nodepairs_(30,_24) - nodepairs_(31,_24) <= 0
_C4517: edgepairs_((31,_32),_(23,_24)) + edgepairs_((31,_32),_(24,_25))
 - nodepairs_(31,_24) - nodepairs_(32,_24) <= 0
_C4518: edgepairs_((32,_33),_(23,_24)) + edgepairs_((32,_33),_(24,_25))
 - nodepairs_(32,_24) - nodepairs_(33,_24) <= 0
_C4519: edgepairs_((33,_34),_(23,_24)) + edgepairs_((33,_34),_(24,_25))
 - nodepairs_(33,_24) - nodepairs_(34,_24) <= 0
_C452: __dummy <= 0
_C4520: edgepairs_((34,_35),_(23,_24)) + edgepairs_((34,_35),_(24,_25))
 - nodepairs_(34,_24) - nodepairs_(35,_24) <= 0
_C4521: edgepairs_((35,_36),_(23,_24)) + edgepairs_((35,_36),_(24,_25))
 - nodepairs_(35,_24) - nodepairs_(36,_24) <= 0
_C4522: edgepairs_((36,_37),_(23,_24)) + edgepairs_((36,_37),_(24,_25))
 - nodepairs_(36,_24) - nodepairs_(37,_24) <= 0
_C4523: edgepairs_((37,_38),_(23,_24)) + edgepairs_((37,_38),_(24,_25))
 - nodepairs_(37,_24) - nodepairs_(38,_24) <= 0
_C4524: edgepairs_((38,_39),_(23,_24)) + edgepairs_((38,_39),_(24,_25))
 - nodepairs_(38,_24) - nodepairs_(39,_24) <= 0
_C4525: edgepairs_((39,_40),_(23,_24)) + edgepairs_((39,_40),_(24,_25))
 - nodepairs_(39,_24) - nodepairs_(40,_24) <= 0
_C4526: edgepairs_((40,_41),_(23,_24)) + edgepairs_((40,_41),_(24,_25))
 - nodepairs_(40,_24) - nodepairs_(41,_24) <= 0
_C4527: edgepairs_((40,_42),_(23,_24)) + edgepairs_((40,_42),_(24,_25))
 - nodepairs_(40,_24) - nodepairs_(42,_24) <= 0
_C4528: - nodepairs_(44,_24) <= 0
_C4529: - nodepairs_(44,_24) <= 0
_C453: edgepairs_((3,_4),_(17,_18)) - nodepairs_(4,_18) <= 0
_C4530: edgepairs_((44,_46),_(23,_24)) + edgepairs_((44,_46),_(24,_25))
 - nodepairs_(44,_24) - nodepairs_(46,_24) <= 0
_C4531: edgepairs_((46,_47),_(23,_24)) + edgepairs_((46,_47),_(24,_25))
 - nodepairs_(46,_24) - nodepairs_(47,_24) <= 0
_C4532: edgepairs_((47,_48),_(23,_24)) + edgepairs_((47,_48),_(24,_25))
 - nodepairs_(47,_24) - nodepairs_(48,_24) <= 0
_C4533: edgepairs_((48,_49),_(23,_24)) + edgepairs_((48,_49),_(24,_25))
 - nodepairs_(48,_24) - nodepairs_(49,_24) <= 0
_C4534: edgepairs_((49,_50),_(23,_24)) + edgepairs_((49,_50),_(24,_25))
 - nodepairs_(49,_24) - nodepairs_(50,_24) <= 0
_C4535: edgepairs_((50,_51),_(23,_24)) + edgepairs_((50,_51),_(24,_25))
 - nodepairs_(50,_24) - nodepairs_(51,_24) <= 0
_C4536: edgepairs_((51,_52),_(23,_24)) + edgepairs_((51,_52),_(24,_25))
 - nodepairs_(51,_24) - nodepairs_(52,_24) <= 0
_C4537: edgepairs_((52,_53),_(23,_24)) + edgepairs_((52,_53),_(24,_25))
 - nodepairs_(52,_24) - nodepairs_(53,_24) <= 0
_C4538: edgepairs_((53,_54),_(23,_24)) + edgepairs_((53,_54),_(24,_25))
 - nodepairs_(53,_24) - nodepairs_(54,_24) <= 0
_C4539: edgepairs_((0,_1),_(24,_25)) + edgepairs_((0,_1),_(25,_26))
 - nodepairs_(0,_25) - nodepairs_(1,_25) <= 0
_C454: edgepairs_((3,_4),_(18,_19)) - nodepairs_(4,_18) <= 0
_C4540: edgepairs_((0,_26),_(24,_25)) + edgepairs_((0,_26),_(25,_26))
 - nodepairs_(0,_25) - nodepairs_(26,_25) <= 0
_C4541: - nodepairs_(0,_25) <= 0
_C4542: - nodepairs_(1,_25) <= 0
_C4543: - nodepairs_(3,_25) <= 0
_C4544: - nodepairs_(3,_25) <= 0
_C4545: edgepairs_((3,_5),_(24,_25)) + edgepairs_((3,_5),_(25,_26))
 - nodepairs_(3,_25) - nodepairs_(5,_25) <= 0
_C4546: edgepairs_((5,_6),_(24,_25)) + edgepairs_((5,_6),_(25,_26))
 - nodepairs_(5,_25) - nodepairs_(6,_25) <= 0
_C4547: edgepairs_((6,_7),_(24,_25)) + edgepairs_((6,_7),_(25,_26))
 - nodepairs_(6,_25) - nodepairs_(7,_25) <= 0
_C4548: edgepairs_((7,_8),_(24,_25)) + edgepairs_((7,_8),_(25,_26))
 - nodepairs_(7,_25) - nodepairs_(8,_25) <= 0
_C4549: edgepairs_((8,_9),_(24,_25)) + edgepairs_((8,_9),_(25,_26))
 - nodepairs_(8,_25) - nodepairs_(9,_25) <= 0
_C455: edgepairs_((3,_4),_(19,_20)) - nodepairs_(4,_20) <= 0
_C4550: edgepairs_((9,_10),_(24,_25)) + edgepairs_((9,_10),_(25,_26))
 - nodepairs_(10,_25) - nodepairs_(9,_25) <= 0
_C4551: edgepairs_((10,_11),_(24,_25)) + edgepairs_((10,_11),_(25,_26))
 - nodepairs_(10,_25) - nodepairs_(11,_25) <= 0
_C4552: edgepairs_((11,_12),_(24,_25)) + edgepairs_((11,_12),_(25,_26))
 - nodepairs_(11,_25) - nodepairs_(12,_25) <= 0
_C4553: edgepairs_((12,_13),_(24,_25)) + edgepairs_((12,_13),_(25,_26))
 - nodepairs_(12,_25) - nodepairs_(13,_25) <= 0
_C4554: edgepairs_((13,_14),_(24,_25)) + edgepairs_((13,_14),_(25,_26))
 - nodepairs_(13,_25) - nodepairs_(14,_25) <= 0
_C4555: edgepairs_((14,_15),_(24,_25)) + edgepairs_((14,_15),_(25,_26))
 - nodepairs_(14,_25) - nodepairs_(15,_25) <= 0
_C4556: edgepairs_((15,_16),_(24,_25)) + edgepairs_((15,_16),_(25,_26))
 - nodepairs_(15,_25) - nodepairs_(16,_25) <= 0
_C4557: edgepairs_((16,_17),_(24,_25)) + edgepairs_((16,_17),_(25,_26))
 - nodepairs_(16,_25) - nodepairs_(17,_25) <= 0
_C4558: edgepairs_((17,_18),_(24,_25)) + edgepairs_((17,_18),_(25,_26))
 - nodepairs_(17,_25) - nodepairs_(18,_25) <= 0
_C4559: edgepairs_((18,_19),_(24,_25)) + edgepairs_((18,_19),_(25,_26))
 - nodepairs_(18,_25) - nodepairs_(19,_25) <= 0
_C456: __dummy <= 0
_C4560: edgepairs_((19,_20),_(24,_25)) + edgepairs_((19,_20),_(25,_26))
 - nodepairs_(19,_25) - nodepairs_(20,_25) <= 0
_C4561: edgepairs_((20,_21),_(24,_25)) + edgepairs_((20,_21),_(25,_26))
 - nodepairs_(20,_25) - nodepairs_(21,_25) <= 0
_C4562: edgepairs_((21,_22),_(24,_25)) + edgepairs_((21,_22),_(25,_26))
 - nodepairs_(21,_25) - nodepairs_(22,_25) <= 0
_C4563: edgepairs_((22,_23),_(24,_25)) + edgepairs_((22,_23),_(25,_26))
 - nodepairs_(22,_25) - nodepairs_(23,_25) <= 0
_C4564: edgepairs_((23,_24),_(24,_25)) + edgepairs_((23,_24),_(25,_26))
 - nodepairs_(23,_25) - nodepairs_(24,_25) <= 0
_C4565: edgepairs_((23,_25),_(24,_25)) + edgepairs_((23,_25),_(25,_26))
 - nodepairs_(23,_25) - nodepairs_(25,_25) <= 0
_C4566: - nodepairs_(26,_25) <= 0
_C4567: - nodepairs_(28,_25) <= 0
_C4568: - nodepairs_(28,_25) <= 0
_C4569: edgepairs_((28,_30),_(24,_25)) + edgepairs_((28,_30),_(25,_26))
 - nodepairs_(28,_25) - nodepairs_(30,_25) <= 0
_C457: __dummy <= 0
_C4570: edgepairs_((30,_31),_(24,_25)) + edgepairs_((30,_31),_(25,_26))
 - nodepairs_(30,_25) - nodepairs_(31,_25) <= 0
_C4571: edgepairs_((31,_32),_(24,_25)) + edgepairs_((31,_32),_(25,_26))
 - nodepairs_(31,_25) - nodepairs_(32,_25) <= 0
_C4572: edgepairs_((32,_33),_(24,_25)) + edgepairs_((32,_33),_(25,_26))
 - nodepairs_(32,_25) - nodepairs_(33,_25) <= 0
_C4573: edgepairs_((33,_34),_(24,_25)) + edgepairs_((33,_34),_(25,_26))
 - nodepairs_(33,_25) - nodepairs_(34,_25) <= 0
_C4574: edgepairs_((34,_35),_(24,_25)) + edgepairs_((34,_35),_(25,_26))
 - nodepairs_(34,_25) - nodepairs_(35,_25) <= 0
_C4575: edgepairs_((35,_36),_(24,_25)) + edgepairs_((35,_36),_(25,_26))
 - nodepairs_(35,_25) - nodepairs_(36,_25) <= 0
_C4576: edgepairs_((36,_37),_(24,_25)) + edgepairs_((36,_37),_(25,_26))
 - nodepairs_(36,_25) - nodepairs_(37,_25) <= 0
_C4577: edgepairs_((37,_38),_(24,_25)) + edgepairs_((37,_38),_(25,_26))
 - nodepairs_(37,_25) - nodepairs_(38,_25) <= 0
_C4578: edgepairs_((38,_39),_(24,_25)) + edgepairs_((38,_39),_(25,_26))
 - nodepairs_(38,_25) - nodepairs_(39,_25) <= 0
_C4579: edgepairs_((39,_40),_(24,_25)) + edgepairs_((39,_40),_(25,_26))
 - nodepairs_(39,_25) - nodepairs_(40,_25) <= 0
_C458: __dummy <= 0
_C4580: edgepairs_((40,_41),_(24,_25)) + edgepairs_((40,_41),_(25,_26))
 - nodepairs_(40,_25) - nodepairs_(41,_25) <= 0
_C4581: edgepairs_((40,_42),_(24,_25)) + edgepairs_((40,_42),_(25,_26))
 - nodepairs_(40,_25) - nodepairs_(42,_25) <= 0
_C4582: - nodepairs_(44,_25) <= 0
_C4583: - nodepairs_(44,_25) <= 0
_C4584: edgepairs_((44,_46),_(24,_25)) + edgepairs_((44,_46),_(25,_26))
 - nodepairs_(44,_25) - nodepairs_(46,_25) <= 0
_C4585: edgepairs_((46,_47),_(24,_25)) + edgepairs_((46,_47),_(25,_26))
 - nodepairs_(46,_25) - nodepairs_(47,_25) <= 0
_C4586: edgepairs_((47,_48),_(24,_25)) + edgepairs_((47,_48),_(25,_26))
 - nodepairs_(47,_25) - nodepairs_(48,_25) <= 0
_C4587: edgepairs_((48,_49),_(24,_25)) + edgepairs_((48,_49),_(25,_26))
 - nodepairs_(48,_25) - nodepairs_(49,_25) <= 0
_C4588: edgepairs_((49,_50),_(24,_25)) + edgepairs_((49,_50),_(25,_26))
 - nodepairs_(49,_25) - nodepairs_(50,_25) <= 0
_C4589: edgepairs_((50,_51),_(24,_25)) + edgepairs_((50,_51),_(25,_26))
 - nodepairs_(50,_25) - nodepairs_(51,_25) <= 0
_C459: __dummy <= 0
_C4590: edgepairs_((51,_52),_(24,_25)) + edgepairs_((51,_52),_(25,_26))
 - nodepairs_(51,_25) - nodepairs_(52,_25) <= 0
_C4591: edgepairs_((52,_53),_(24,_25)) + edgepairs_((52,_53),_(25,_26))
 - nodepairs_(52,_25) - nodepairs_(53,_25) <= 0
_C4592: edgepairs_((53,_54),_(24,_25)) + edgepairs_((53,_54),_(25,_26))
 - nodepairs_(53,_25) - nodepairs_(54,_25) <= 0
_C4593: edgepairs_((0,_1),_(25,_26)) + edgepairs_((0,_1),_(26,_27))
 - nodepairs_(0,_26) - nodepairs_(1,_26) <= 0
_C4594: edgepairs_((0,_26),_(25,_26)) + edgepairs_((0,_26),_(26,_27))
 - nodepairs_(0,_26) - nodepairs_(26,_26) <= 0
_C4595: - nodepairs_(0,_26) <= 0
_C4596: - nodepairs_(1,_26) <= 0
_C4597: - nodepairs_(3,_26) <= 0
_C4598: - nodepairs_(3,_26) <= 0
_C4599: edgepairs_((3,_5),_(25,_26)) + edgepairs_((3,_5),_(26,_27))
 - nodepairs_(3,_26) - nodepairs_(5,_26) <= 0
_C46: nodepairs_(45,_18) + nodepairs_(45,_2) + nodepairs_(45,_20)
 + nodepairs_(45,_4) + nodepairs_(45,_41) + nodepairs_(45,_43) <= 1
_C460: __dummy <= 0
_C4600: edgepairs_((5,_6),_(25,_26)) + edgepairs_((5,_6),_(26,_27))
 - nodepairs_(5,_26) - nodepairs_(6,_26) <= 0
_C4601: edgepairs_((6,_7),_(25,_26)) + edgepairs_((6,_7),_(26,_27))
 - nodepairs_(6,_26) - nodepairs_(7,_26) <= 0
_C4602: edgepairs_((7,_8),_(25,_26)) + edgepairs_((7,_8),_(26,_27))
 - nodepairs_(7,_26) - nodepairs_(8,_26) <= 0
_C4603: edgepairs_((8,_9),_(25,_26)) + edgepairs_((8,_9),_(26,_27))
 - nodepairs_(8,_26) - nodepairs_(9,_26) <= 0
_C4604: edgepairs_((9,_10),_(25,_26)) + edgepairs_((9,_10),_(26,_27))
 - nodepairs_(10,_26) - nodepairs_(9,_26) <= 0
_C4605: edgepairs_((10,_11),_(25,_26)) + edgepairs_((10,_11),_(26,_27))
 - nodepairs_(10,_26) - nodepairs_(11,_26) <= 0
_C4606: edgepairs_((11,_12),_(25,_26)) + edgepairs_((11,_12),_(26,_27))
 - nodepairs_(11,_26) - nodepairs_(12,_26) <= 0
_C4607: edgepairs_((12,_13),_(25,_26)) + edgepairs_((12,_13),_(26,_27))
 - nodepairs_(12,_26) - nodepairs_(13,_26) <= 0
_C4608: edgepairs_((13,_14),_(25,_26)) + edgepairs_((13,_14),_(26,_27))
 - nodepairs_(13,_26) - nodepairs_(14,_26) <= 0
_C4609: edgepairs_((14,_15),_(25,_26)) + edgepairs_((14,_15),_(26,_27))
 - nodepairs_(14,_26) - nodepairs_(15,_26) <= 0
_C461: __dummy <= 0
_C4610: edgepairs_((15,_16),_(25,_26)) + edgepairs_((15,_16),_(26,_27))
 - nodepairs_(15,_26) - nodepairs_(16,_26) <= 0
_C4611: edgepairs_((16,_17),_(25,_26)) + edgepairs_((16,_17),_(26,_27))
 - nodepairs_(16,_26) - nodepairs_(17,_26) <= 0
_C4612: edgepairs_((17,_18),_(25,_26)) + edgepairs_((17,_18),_(26,_27))
 - nodepairs_(17,_26) - nodepairs_(18,_26) <= 0
_C4613: edgepairs_((18,_19),_(25,_26)) + edgepairs_((18,_19),_(26,_27))
 - nodepairs_(18,_26) - nodepairs_(19,_26) <= 0
_C4614: edgepairs_((19,_20),_(25,_26)) + edgepairs_((19,_20),_(26,_27))
 - nodepairs_(19,_26) - nodepairs_(20,_26) <= 0
_C4615: edgepairs_((20,_21),_(25,_26)) + edgepairs_((20,_21),_(26,_27))
 - nodepairs_(20,_26) - nodepairs_(21,_26) <= 0
_C4616: edgepairs_((21,_22),_(25,_26)) + edgepairs_((21,_22),_(26,_27))
 - nodepairs_(21,_26) - nodepairs_(22,_26) <= 0
_C4617: edgepairs_((22,_23),_(25,_26)) + edgepairs_((22,_23),_(26,_27))
 - nodepairs_(22,_26) - nodepairs_(23,_26) <= 0
_C4618: edgepairs_((23,_24),_(25,_26)) + edgepairs_((23,_24),_(26,_27))
 - nodepairs_(23,_26) - nodepairs_(24,_26) <= 0
_C4619: edgepairs_((23,_25),_(25,_26)) + edgepairs_((23,_25),_(26,_27))
 - nodepairs_(23,_26) - nodepairs_(25,_26) <= 0
_C462: __dummy <= 0
_C4620: - nodepairs_(26,_26) <= 0
_C4621: - nodepairs_(28,_26) <= 0
_C4622: - nodepairs_(28,_26) <= 0
_C4623: edgepairs_((28,_30),_(25,_26)) + edgepairs_((28,_30),_(26,_27))
 - nodepairs_(28,_26) - nodepairs_(30,_26) <= 0
_C4624: edgepairs_((30,_31),_(25,_26)) + edgepairs_((30,_31),_(26,_27))
 - nodepairs_(30,_26) - nodepairs_(31,_26) <= 0
_C4625: edgepairs_((31,_32),_(25,_26)) + edgepairs_((31,_32),_(26,_27))
 - nodepairs_(31,_26) - nodepairs_(32,_26) <= 0
_C4626: edgepairs_((32,_33),_(25,_26)) + edgepairs_((32,_33),_(26,_27))
 - nodepairs_(32,_26) - nodepairs_(33,_26) <= 0
_C4627: edgepairs_((33,_34),_(25,_26)) + edgepairs_((33,_34),_(26,_27))
 - nodepairs_(33,_26) - nodepairs_(34,_26) <= 0
_C4628: edgepairs_((34,_35),_(25,_26)) + edgepairs_((34,_35),_(26,_27))
 - nodepairs_(34,_26) - nodepairs_(35,_26) <= 0
_C4629: edgepairs_((35,_36),_(25,_26)) + edgepairs_((35,_36),_(26,_27))
 - nodepairs_(35,_26) - nodepairs_(36,_26) <= 0
_C463: __dummy <= 0
_C4630: edgepairs_((36,_37),_(25,_26)) + edgepairs_((36,_37),_(26,_27))
 - nodepairs_(36,_26) - nodepairs_(37,_26) <= 0
_C4631: edgepairs_((37,_38),_(25,_26)) + edgepairs_((37,_38),_(26,_27))
 - nodepairs_(37,_26) - nodepairs_(38,_26) <= 0
_C4632: edgepairs_((38,_39),_(25,_26)) + edgepairs_((38,_39),_(26,_27))
 - nodepairs_(38,_26) - nodepairs_(39,_26) <= 0
_C4633: edgepairs_((39,_40),_(25,_26)) + edgepairs_((39,_40),_(26,_27))
 - nodepairs_(39,_26) - nodepairs_(40,_26) <= 0
_C4634: edgepairs_((40,_41),_(25,_26)) + edgepairs_((40,_41),_(26,_27))
 - nodepairs_(40,_26) - nodepairs_(41,_26) <= 0
_C4635: edgepairs_((40,_42),_(25,_26)) + edgepairs_((40,_42),_(26,_27))
 - nodepairs_(40,_26) - nodepairs_(42,_26) <= 0
_C4636: - nodepairs_(44,_26) <= 0
_C4637: - nodepairs_(44,_26) <= 0
_C4638: edgepairs_((44,_46),_(25,_26)) + edgepairs_((44,_46),_(26,_27))
 - nodepairs_(44,_26) - nodepairs_(46,_26) <= 0
_C4639: edgepairs_((46,_47),_(25,_26)) + edgepairs_((46,_47),_(26,_27))
 - nodepairs_(46,_26) - nodepairs_(47,_26) <= 0
_C464: __dummy <= 0
_C4640: edgepairs_((47,_48),_(25,_26)) + edgepairs_((47,_48),_(26,_27))
 - nodepairs_(47,_26) - nodepairs_(48,_26) <= 0
_C4641: edgepairs_((48,_49),_(25,_26)) + edgepairs_((48,_49),_(26,_27))
 - nodepairs_(48,_26) - nodepairs_(49,_26) <= 0
_C4642: edgepairs_((49,_50),_(25,_26)) + edgepairs_((49,_50),_(26,_27))
 - nodepairs_(49,_26) - nodepairs_(50,_26) <= 0
_C4643: edgepairs_((50,_51),_(25,_26)) + edgepairs_((50,_51),_(26,_27))
 - nodepairs_(50,_26) - nodepairs_(51,_26) <= 0
_C4644: edgepairs_((51,_52),_(25,_26)) + edgepairs_((51,_52),_(26,_27))
 - nodepairs_(51,_26) - nodepairs_(52,_26) <= 0
_C4645: edgepairs_((52,_53),_(25,_26)) + edgepairs_((52,_53),_(26,_27))
 - nodepairs_(52,_26) - nodepairs_(53,_26) <= 0
_C4646: edgepairs_((53,_54),_(25,_26)) + edgepairs_((53,_54),_(26,_27))
 - nodepairs_(53,_26) - nodepairs_(54,_26) <= 0
_C4647: edgepairs_((0,_1),_(26,_27)) + edgepairs_((0,_1),_(27,_28))
 - nodepairs_(0,_27) - nodepairs_(1,_27) <= 0
_C4648: edgepairs_((0,_26),_(26,_27)) + edgepairs_((0,_26),_(27,_28))
 - nodepairs_(0,_27) - nodepairs_(26,_27) <= 0
_C4649: - nodepairs_(0,_27) <= 0
_C465: __dummy <= 0
_C4650: - nodepairs_(1,_27) <= 0
_C4651: - nodepairs_(3,_27) <= 0
_C4652: - nodepairs_(3,_27) <= 0
_C4653: edgepairs_((3,_5),_(26,_27)) + edgepairs_((3,_5),_(27,_28))
 - nodepairs_(3,_27) - nodepairs_(5,_27) <= 0
_C4654: edgepairs_((5,_6),_(26,_27)) + edgepairs_((5,_6),_(27,_28))
 - nodepairs_(5,_27) - nodepairs_(6,_27) <= 0
_C4655: edgepairs_((6,_7),_(26,_27)) + edgepairs_((6,_7),_(27,_28))
 - nodepairs_(6,_27) - nodepairs_(7,_27) <= 0
_C4656: edgepairs_((7,_8),_(26,_27)) + edgepairs_((7,_8),_(27,_28))
 - nodepairs_(7,_27) - nodepairs_(8,_27) <= 0
_C4657: edgepairs_((8,_9),_(26,_27)) + edgepairs_((8,_9),_(27,_28))
 - nodepairs_(8,_27) - nodepairs_(9,_27) <= 0
_C4658: edgepairs_((9,_10),_(26,_27)) + edgepairs_((9,_10),_(27,_28))
 - nodepairs_(10,_27) - nodepairs_(9,_27) <= 0
_C4659: edgepairs_((10,_11),_(26,_27)) + edgepairs_((10,_11),_(27,_28))
 - nodepairs_(10,_27) - nodepairs_(11,_27) <= 0
_C466: __dummy <= 0
_C4660: edgepairs_((11,_12),_(26,_27)) + edgepairs_((11,_12),_(27,_28))
 - nodepairs_(11,_27) - nodepairs_(12,_27) <= 0
_C4661: edgepairs_((12,_13),_(26,_27)) + edgepairs_((12,_13),_(27,_28))
 - nodepairs_(12,_27) - nodepairs_(13,_27) <= 0
_C4662: edgepairs_((13,_14),_(26,_27)) + edgepairs_((13,_14),_(27,_28))
 - nodepairs_(13,_27) - nodepairs_(14,_27) <= 0
_C4663: edgepairs_((14,_15),_(26,_27)) + edgepairs_((14,_15),_(27,_28))
 - nodepairs_(14,_27) - nodepairs_(15,_27) <= 0
_C4664: edgepairs_((15,_16),_(26,_27)) + edgepairs_((15,_16),_(27,_28))
 - nodepairs_(15,_27) - nodepairs_(16,_27) <= 0
_C4665: edgepairs_((16,_17),_(26,_27)) + edgepairs_((16,_17),_(27,_28))
 - nodepairs_(16,_27) - nodepairs_(17,_27) <= 0
_C4666: edgepairs_((17,_18),_(26,_27)) + edgepairs_((17,_18),_(27,_28))
 - nodepairs_(17,_27) - nodepairs_(18,_27) <= 0
_C4667: edgepairs_((18,_19),_(26,_27)) + edgepairs_((18,_19),_(27,_28))
 - nodepairs_(18,_27) - nodepairs_(19,_27) <= 0
_C4668: edgepairs_((19,_20),_(26,_27)) + edgepairs_((19,_20),_(27,_28))
 - nodepairs_(19,_27) - nodepairs_(20,_27) <= 0
_C4669: edgepairs_((20,_21),_(26,_27)) + edgepairs_((20,_21),_(27,_28))
 - nodepairs_(20,_27) - nodepairs_(21,_27) <= 0
_C467: __dummy <= 0
_C4670: edgepairs_((21,_22),_(26,_27)) + edgepairs_((21,_22),_(27,_28))
 - nodepairs_(21,_27) - nodepairs_(22,_27) <= 0
_C4671: edgepairs_((22,_23),_(26,_27)) + edgepairs_((22,_23),_(27,_28))
 - nodepairs_(22,_27) - nodepairs_(23,_27) <= 0
_C4672: edgepairs_((23,_24),_(26,_27)) + edgepairs_((23,_24),_(27,_28))
 - nodepairs_(23,_27) - nodepairs_(24,_27) <= 0
_C4673: edgepairs_((23,_25),_(26,_27)) + edgepairs_((23,_25),_(27,_28))
 - nodepairs_(23,_27) - nodepairs_(25,_27) <= 0
_C4674: - nodepairs_(26,_27) <= 0
_C4675: - nodepairs_(28,_27) <= 0
_C4676: - nodepairs_(28,_27) <= 0
_C4677: edgepairs_((28,_30),_(26,_27)) + edgepairs_((28,_30),_(27,_28))
 - nodepairs_(28,_27) - nodepairs_(30,_27) <= 0
_C4678: edgepairs_((30,_31),_(26,_27)) + edgepairs_((30,_31),_(27,_28))
 - nodepairs_(30,_27) - nodepairs_(31,_27) <= 0
_C4679: edgepairs_((31,_32),_(26,_27)) + edgepairs_((31,_32),_(27,_28))
 - nodepairs_(31,_27) - nodepairs_(32,_27) <= 0
_C468: __dummy <= 0
_C4680: edgepairs_((32,_33),_(26,_27)) + edgepairs_((32,_33),_(27,_28))
 - nodepairs_(32,_27) - nodepairs_(33,_27) <= 0
_C4681: edgepairs_((33,_34),_(26,_27)) + edgepairs_((33,_34),_(27,_28))
 - nodepairs_(33,_27) - nodepairs_(34,_27) <= 0
_C4682: edgepairs_((34,_35),_(26,_27)) + edgepairs_((34,_35),_(27,_28))
 - nodepairs_(34,_27) - nodepairs_(35,_27) <= 0
_C4683: edgepairs_((35,_36),_(26,_27)) + edgepairs_((35,_36),_(27,_28))
 - nodepairs_(35,_27) - nodepairs_(36,_27) <= 0
_C4684: edgepairs_((36,_37),_(26,_27)) + edgepairs_((36,_37),_(27,_28))
 - nodepairs_(36,_27) - nodepairs_(37,_27) <= 0
_C4685: edgepairs_((37,_38),_(26,_27)) + edgepairs_((37,_38),_(27,_28))
 - nodepairs_(37,_27) - nodepairs_(38,_27) <= 0
_C4686: edgepairs_((38,_39),_(26,_27)) + edgepairs_((38,_39),_(27,_28))
 - nodepairs_(38,_27) - nodepairs_(39,_27) <= 0
_C4687: edgepairs_((39,_40),_(26,_27)) + edgepairs_((39,_40),_(27,_28))
 - nodepairs_(39,_27) - nodepairs_(40,_27) <= 0
_C4688: edgepairs_((40,_41),_(26,_27)) + edgepairs_((40,_41),_(27,_28))
 - nodepairs_(40,_27) - nodepairs_(41,_27) <= 0
_C4689: edgepairs_((40,_42),_(26,_27)) + edgepairs_((40,_42),_(27,_28))
 - nodepairs_(40,_27) - nodepairs_(42,_27) <= 0
_C469: __dummy <= 0
_C4690: - nodepairs_(44,_27) <= 0
_C4691: - nodepairs_(44,_27) <= 0
_C4692: edgepairs_((44,_46),_(26,_27)) + edgepairs_((44,_46),_(27,_28))
 - nodepairs_(44,_27) - nodepairs_(46,_27) <= 0
_C4693: edgepairs_((46,_47),_(26,_27)) + edgepairs_((46,_47),_(27,_28))
 - nodepairs_(46,_27) - nodepairs_(47,_27) <= 0
_C4694: edgepairs_((47,_48),_(26,_27)) + edgepairs_((47,_48),_(27,_28))
 - nodepairs_(47,_27) - nodepairs_(48,_27) <= 0
_C4695: edgepairs_((48,_49),_(26,_27)) + edgepairs_((48,_49),_(27,_28))
 - nodepairs_(48,_27) - nodepairs_(49,_27) <= 0
_C4696: edgepairs_((49,_50),_(26,_27)) + edgepairs_((49,_50),_(27,_28))
 - nodepairs_(49,_27) - nodepairs_(50,_27) <= 0
_C4697: edgepairs_((50,_51),_(26,_27)) + edgepairs_((50,_51),_(27,_28))
 - nodepairs_(50,_27) - nodepairs_(51,_27) <= 0
_C4698: edgepairs_((51,_52),_(26,_27)) + edgepairs_((51,_52),_(27,_28))
 - nodepairs_(51,_27) - nodepairs_(52,_27) <= 0
_C4699: edgepairs_((52,_53),_(26,_27)) + edgepairs_((52,_53),_(27,_28))
 - nodepairs_(52,_27) - nodepairs_(53,_27) <= 0
_C47: nodepairs_(46,_0) + nodepairs_(46,_1) + nodepairs_(46,_10)
 + nodepairs_(46,_11) + nodepairs_(46,_12) + nodepairs_(46,_13)
 + nodepairs_(46,_14) + nodepairs_(46,_15) + nodepairs_(46,_16)
 + nodepairs_(46,_17) + nodepairs_(46,_19) + nodepairs_(46,_21)
 + nodepairs_(46,_22) + nodepairs_(46,_23) + nodepairs_(46,_24)
 + nodepairs_(46,_25) + nodepairs_(46,_26) + nodepairs_(46,_27)
 + nodepairs_(46,_28) + nodepairs_(46,_29) + nodepairs_(46,_3)
 + nodepairs_(46,_30) + nodepairs_(46,_31) + nodepairs_(46,_32)
 + nodepairs_(46,_33) + nodepairs_(46,_34) + nodepairs_(46,_35)
 + nodepairs_(46,_36) + nodepairs_(46,_37) + nodepairs_(46,_38)
 + nodepairs_(46,_39) + nodepairs_(46,_40) + nodepairs_(46,_42)
 + nodepairs_(46,_44) + nodepairs_(46,_45) + nodepairs_(46,_46)
 + nodepairs_(46,_47) + nodepairs_(46,_48) + nodepairs_(46,_49)
 + nodepairs_(46,_5) + nodepairs_(46,_50) + nodepairs_(46,_51)
 + nodepairs_(46,_52) + nodepairs_(46,_53) + nodepairs_(46,_54)
 + nodepairs_(46,_6) + nodepairs_(46,_7) + nodepairs_(46,_8)
 + nodepairs_(46,_9) <= 1
_C470: __dummy <= 0
_C4700: edgepairs_((53,_54),_(26,_27)) + edgepairs_((53,_54),_(27,_28))
 - nodepairs_(53,_27) - nodepairs_(54,_27) <= 0
_C4701: edgepairs_((0,_1),_(27,_28)) + edgepairs_((0,_1),_(28,_29))
 - nodepairs_(0,_28) - nodepairs_(1,_28) <= 0
_C4702: edgepairs_((0,_26),_(27,_28)) + edgepairs_((0,_26),_(28,_29))
 - nodepairs_(0,_28) - nodepairs_(26,_28) <= 0
_C4703: - nodepairs_(0,_28) <= 0
_C4704: - nodepairs_(1,_28) <= 0
_C4705: - nodepairs_(3,_28) <= 0
_C4706: - nodepairs_(3,_28) <= 0
_C4707: edgepairs_((3,_5),_(27,_28)) + edgepairs_((3,_5),_(28,_29))
 - nodepairs_(3,_28) - nodepairs_(5,_28) <= 0
_C4708: edgepairs_((5,_6),_(27,_28)) + edgepairs_((5,_6),_(28,_29))
 - nodepairs_(5,_28) - nodepairs_(6,_28) <= 0
_C4709: edgepairs_((6,_7),_(27,_28)) + edgepairs_((6,_7),_(28,_29))
 - nodepairs_(6,_28) - nodepairs_(7,_28) <= 0
_C471: __dummy <= 0
_C4710: edgepairs_((7,_8),_(27,_28)) + edgepairs_((7,_8),_(28,_29))
 - nodepairs_(7,_28) - nodepairs_(8,_28) <= 0
_C4711: edgepairs_((8,_9),_(27,_28)) + edgepairs_((8,_9),_(28,_29))
 - nodepairs_(8,_28) - nodepairs_(9,_28) <= 0
_C4712: edgepairs_((9,_10),_(27,_28)) + edgepairs_((9,_10),_(28,_29))
 - nodepairs_(10,_28) - nodepairs_(9,_28) <= 0
_C4713: edgepairs_((10,_11),_(27,_28)) + edgepairs_((10,_11),_(28,_29))
 - nodepairs_(10,_28) - nodepairs_(11,_28) <= 0
_C4714: edgepairs_((11,_12),_(27,_28)) + edgepairs_((11,_12),_(28,_29))
 - nodepairs_(11,_28) - nodepairs_(12,_28) <= 0
_C4715: edgepairs_((12,_13),_(27,_28)) + edgepairs_((12,_13),_(28,_29))
 - nodepairs_(12,_28) - nodepairs_(13,_28) <= 0
_C4716: edgepairs_((13,_14),_(27,_28)) + edgepairs_((13,_14),_(28,_29))
 - nodepairs_(13,_28) - nodepairs_(14,_28) <= 0
_C4717: edgepairs_((14,_15),_(27,_28)) + edgepairs_((14,_15),_(28,_29))
 - nodepairs_(14,_28) - nodepairs_(15,_28) <= 0
_C4718: edgepairs_((15,_16),_(27,_28)) + edgepairs_((15,_16),_(28,_29))
 - nodepairs_(15,_28) - nodepairs_(16,_28) <= 0
_C4719: edgepairs_((16,_17),_(27,_28)) + edgepairs_((16,_17),_(28,_29))
 - nodepairs_(16,_28) - nodepairs_(17,_28) <= 0
_C472: __dummy <= 0
_C4720: edgepairs_((17,_18),_(27,_28)) + edgepairs_((17,_18),_(28,_29))
 - nodepairs_(17,_28) - nodepairs_(18,_28) <= 0
_C4721: edgepairs_((18,_19),_(27,_28)) + edgepairs_((18,_19),_(28,_29))
 - nodepairs_(18,_28) - nodepairs_(19,_28) <= 0
_C4722: edgepairs_((19,_20),_(27,_28)) + edgepairs_((19,_20),_(28,_29))
 - nodepairs_(19,_28) - nodepairs_(20,_28) <= 0
_C4723: edgepairs_((20,_21),_(27,_28)) + edgepairs_((20,_21),_(28,_29))
 - nodepairs_(20,_28) - nodepairs_(21,_28) <= 0
_C4724: edgepairs_((21,_22),_(27,_28)) + edgepairs_((21,_22),_(28,_29))
 - nodepairs_(21,_28) - nodepairs_(22,_28) <= 0
_C4725: edgepairs_((22,_23),_(27,_28)) + edgepairs_((22,_23),_(28,_29))
 - nodepairs_(22,_28) - nodepairs_(23,_28) <= 0
_C4726: edgepairs_((23,_24),_(27,_28)) + edgepairs_((23,_24),_(28,_29))
 - nodepairs_(23,_28) - nodepairs_(24,_28) <= 0
_C4727: edgepairs_((23,_25),_(27,_28)) + edgepairs_((23,_25),_(28,_29))
 - nodepairs_(23,_28) - nodepairs_(25,_28) <= 0
_C4728: - nodepairs_(26,_28) <= 0
_C4729: - nodepairs_(28,_28) <= 0
_C473: __dummy <= 0
_C4730: - nodepairs_(28,_28) <= 0
_C4731: edgepairs_((28,_30),_(27,_28)) + edgepairs_((28,_30),_(28,_29))
 - nodepairs_(28,_28) - nodepairs_(30,_28) <= 0
_C4732: edgepairs_((30,_31),_(27,_28)) + edgepairs_((30,_31),_(28,_29))
 - nodepairs_(30,_28) - nodepairs_(31,_28) <= 0
_C4733: edgepairs_((31,_32),_(27,_28)) + edgepairs_((31,_32),_(28,_29))
 - nodepairs_(31,_28) - nodepairs_(32,_28) <= 0
_C4734: edgepairs_((32,_33),_(27,_28)) + edgepairs_((32,_33),_(28,_29))
 - nodepairs_(32,_28) - nodepairs_(33,_28) <= 0
_C4735: edgepairs_((33,_34),_(27,_28)) + edgepairs_((33,_34),_(28,_29))
 - nodepairs_(33,_28) - nodepairs_(34,_28) <= 0
_C4736: edgepairs_((34,_35),_(27,_28)) + edgepairs_((34,_35),_(28,_29))
 - nodepairs_(34,_28) - nodepairs_(35,_28) <= 0
_C4737: edgepairs_((35,_36),_(27,_28)) + edgepairs_((35,_36),_(28,_29))
 - nodepairs_(35,_28) - nodepairs_(36,_28) <= 0
_C4738: edgepairs_((36,_37),_(27,_28)) + edgepairs_((36,_37),_(28,_29))
 - nodepairs_(36,_28) - nodepairs_(37,_28) <= 0
_C4739: edgepairs_((37,_38),_(27,_28)) + edgepairs_((37,_38),_(28,_29))
 - nodepairs_(37,_28) - nodepairs_(38,_28) <= 0
_C474: __dummy <= 0
_C4740: edgepairs_((38,_39),_(27,_28)) + edgepairs_((38,_39),_(28,_29))
 - nodepairs_(38,_28) - nodepairs_(39,_28) <= 0
_C4741: edgepairs_((39,_40),_(27,_28)) + edgepairs_((39,_40),_(28,_29))
 - nodepairs_(39,_28) - nodepairs_(40,_28) <= 0
_C4742: edgepairs_((40,_41),_(27,_28)) + edgepairs_((40,_41),_(28,_29))
 - nodepairs_(40,_28) - nodepairs_(41,_28) <= 0
_C4743: edgepairs_((40,_42),_(27,_28)) + edgepairs_((40,_42),_(28,_29))
 - nodepairs_(40,_28) - nodepairs_(42,_28) <= 0
_C4744: - nodepairs_(44,_28) <= 0
_C4745: - nodepairs_(44,_28) <= 0
_C4746: edgepairs_((44,_46),_(27,_28)) + edgepairs_((44,_46),_(28,_29))
 - nodepairs_(44,_28) - nodepairs_(46,_28) <= 0
_C4747: edgepairs_((46,_47),_(27,_28)) + edgepairs_((46,_47),_(28,_29))
 - nodepairs_(46,_28) - nodepairs_(47,_28) <= 0
_C4748: edgepairs_((47,_48),_(27,_28)) + edgepairs_((47,_48),_(28,_29))
 - nodepairs_(47,_28) - nodepairs_(48,_28) <= 0
_C4749: edgepairs_((48,_49),_(27,_28)) + edgepairs_((48,_49),_(28,_29))
 - nodepairs_(48,_28) - nodepairs_(49,_28) <= 0
_C475: __dummy <= 0
_C4750: edgepairs_((49,_50),_(27,_28)) + edgepairs_((49,_50),_(28,_29))
 - nodepairs_(49,_28) - nodepairs_(50,_28) <= 0
_C4751: edgepairs_((50,_51),_(27,_28)) + edgepairs_((50,_51),_(28,_29))
 - nodepairs_(50,_28) - nodepairs_(51,_28) <= 0
_C4752: edgepairs_((51,_52),_(27,_28)) + edgepairs_((51,_52),_(28,_29))
 - nodepairs_(51,_28) - nodepairs_(52,_28) <= 0
_C4753: edgepairs_((52,_53),_(27,_28)) + edgepairs_((52,_53),_(28,_29))
 - nodepairs_(52,_28) - nodepairs_(53,_28) <= 0
_C4754: edgepairs_((53,_54),_(27,_28)) + edgepairs_((53,_54),_(28,_29))
 - nodepairs_(53,_28) - nodepairs_(54,_28) <= 0
_C4755: edgepairs_((0,_1),_(28,_29)) + edgepairs_((0,_1),_(29,_30))
 - nodepairs_(0,_29) - nodepairs_(1,_29) <= 0
_C4756: edgepairs_((0,_26),_(28,_29)) + edgepairs_((0,_26),_(29,_30))
 - nodepairs_(0,_29) - nodepairs_(26,_29) <= 0
_C4757: - nodepairs_(0,_29) <= 0
_C4758: - nodepairs_(1,_29) <= 0
_C4759: - nodepairs_(3,_29) <= 0
_C476: edgepairs_((3,_4),_(41,_42)) - nodepairs_(4,_41) <= 0
_C4760: - nodepairs_(3,_29) <= 0
_C4761: edgepairs_((3,_5),_(28,_29)) + edgepairs_((3,_5),_(29,_30))
 - nodepairs_(3,_29) - nodepairs_(5,_29) <= 0
_C4762: edgepairs_((5,_6),_(28,_29)) + edgepairs_((5,_6),_(29,_30))
 - nodepairs_(5,_29) - nodepairs_(6,_29) <= 0
_C4763: edgepairs_((6,_7),_(28,_29)) + edgepairs_((6,_7),_(29,_30))
 - nodepairs_(6,_29) - nodepairs_(7,_29) <= 0
_C4764: edgepairs_((7,_8),_(28,_29)) + edgepairs_((7,_8),_(29,_30))
 - nodepairs_(7,_29) - nodepairs_(8,_29) <= 0
_C4765: edgepairs_((8,_9),_(28,_29)) + edgepairs_((8,_9),_(29,_30))
 - nodepairs_(8,_29) - nodepairs_(9,_29) <= 0
_C4766: edgepairs_((9,_10),_(28,_29)) + edgepairs_((9,_10),_(29,_30))
 - nodepairs_(10,_29) - nodepairs_(9,_29) <= 0
_C4767: edgepairs_((10,_11),_(28,_29)) + edgepairs_((10,_11),_(29,_30))
 - nodepairs_(10,_29) - nodepairs_(11,_29) <= 0
_C4768: edgepairs_((11,_12),_(28,_29)) + edgepairs_((11,_12),_(29,_30))
 - nodepairs_(11,_29) - nodepairs_(12,_29) <= 0
_C4769: edgepairs_((12,_13),_(28,_29)) + edgepairs_((12,_13),_(29,_30))
 - nodepairs_(12,_29) - nodepairs_(13,_29) <= 0
_C477: edgepairs_((3,_4),_(42,_43)) - nodepairs_(4,_43) <= 0
_C4770: edgepairs_((13,_14),_(28,_29)) + edgepairs_((13,_14),_(29,_30))
 - nodepairs_(13,_29) - nodepairs_(14,_29) <= 0
_C4771: edgepairs_((14,_15),_(28,_29)) + edgepairs_((14,_15),_(29,_30))
 - nodepairs_(14,_29) - nodepairs_(15,_29) <= 0
_C4772: edgepairs_((15,_16),_(28,_29)) + edgepairs_((15,_16),_(29,_30))
 - nodepairs_(15,_29) - nodepairs_(16,_29) <= 0
_C4773: edgepairs_((16,_17),_(28,_29)) + edgepairs_((16,_17),_(29,_30))
 - nodepairs_(16,_29) - nodepairs_(17,_29) <= 0
_C4774: edgepairs_((17,_18),_(28,_29)) + edgepairs_((17,_18),_(29,_30))
 - nodepairs_(17,_29) - nodepairs_(18,_29) <= 0
_C4775: edgepairs_((18,_19),_(28,_29)) + edgepairs_((18,_19),_(29,_30))
 - nodepairs_(18,_29) - nodepairs_(19,_29) <= 0
_C4776: edgepairs_((19,_20),_(28,_29)) + edgepairs_((19,_20),_(29,_30))
 - nodepairs_(19,_29) - nodepairs_(20,_29) <= 0
_C4777: edgepairs_((20,_21),_(28,_29)) + edgepairs_((20,_21),_(29,_30))
 - nodepairs_(20,_29) - nodepairs_(21,_29) <= 0
_C4778: edgepairs_((21,_22),_(28,_29)) + edgepairs_((21,_22),_(29,_30))
 - nodepairs_(21,_29) - nodepairs_(22,_29) <= 0
_C4779: edgepairs_((22,_23),_(28,_29)) + edgepairs_((22,_23),_(29,_30))
 - nodepairs_(22,_29) - nodepairs_(23,_29) <= 0
_C478: __dummy <= 0
_C4780: edgepairs_((23,_24),_(28,_29)) + edgepairs_((23,_24),_(29,_30))
 - nodepairs_(23,_29) - nodepairs_(24,_29) <= 0
_C4781: edgepairs_((23,_25),_(28,_29)) + edgepairs_((23,_25),_(29,_30))
 - nodepairs_(23,_29) - nodepairs_(25,_29) <= 0
_C4782: - nodepairs_(26,_29) <= 0
_C4783: - nodepairs_(28,_29) <= 0
_C4784: - nodepairs_(28,_29) <= 0
_C4785: edgepairs_((28,_30),_(28,_29)) + edgepairs_((28,_30),_(29,_30))
 - nodepairs_(28,_29) - nodepairs_(30,_29) <= 0
_C4786: edgepairs_((30,_31),_(28,_29)) + edgepairs_((30,_31),_(29,_30))
 - nodepairs_(30,_29) - nodepairs_(31,_29) <= 0
_C4787: edgepairs_((31,_32),_(28,_29)) + edgepairs_((31,_32),_(29,_30))
 - nodepairs_(31,_29) - nodepairs_(32,_29) <= 0
_C4788: edgepairs_((32,_33),_(28,_29)) + edgepairs_((32,_33),_(29,_30))
 - nodepairs_(32,_29) - nodepairs_(33,_29) <= 0
_C4789: edgepairs_((33,_34),_(28,_29)) + edgepairs_((33,_34),_(29,_30))
 - nodepairs_(33,_29) - nodepairs_(34,_29) <= 0
_C479: __dummy <= 0
_C4790: edgepairs_((34,_35),_(28,_29)) + edgepairs_((34,_35),_(29,_30))
 - nodepairs_(34,_29) - nodepairs_(35,_29) <= 0
_C4791: edgepairs_((35,_36),_(28,_29)) + edgepairs_((35,_36),_(29,_30))
 - nodepairs_(35,_29) - nodepairs_(36,_29) <= 0
_C4792: edgepairs_((36,_37),_(28,_29)) + edgepairs_((36,_37),_(29,_30))
 - nodepairs_(36,_29) - nodepairs_(37,_29) <= 0
_C4793: edgepairs_((37,_38),_(28,_29)) + edgepairs_((37,_38),_(29,_30))
 - nodepairs_(37,_29) - nodepairs_(38,_29) <= 0
_C4794: edgepairs_((38,_39),_(28,_29)) + edgepairs_((38,_39),_(29,_30))
 - nodepairs_(38,_29) - nodepairs_(39,_29) <= 0
_C4795: edgepairs_((39,_40),_(28,_29)) + edgepairs_((39,_40),_(29,_30))
 - nodepairs_(39,_29) - nodepairs_(40,_29) <= 0
_C4796: edgepairs_((40,_41),_(28,_29)) + edgepairs_((40,_41),_(29,_30))
 - nodepairs_(40,_29) - nodepairs_(41,_29) <= 0
_C4797: edgepairs_((40,_42),_(28,_29)) + edgepairs_((40,_42),_(29,_30))
 - nodepairs_(40,_29) - nodepairs_(42,_29) <= 0
_C4798: - nodepairs_(44,_29) <= 0
_C4799: - nodepairs_(44,_29) <= 0
_C48: nodepairs_(47,_0) + nodepairs_(47,_1) + nodepairs_(47,_10)
 + nodepairs_(47,_11) + nodepairs_(47,_12) + nodepairs_(47,_13)
 + nodepairs_(47,_14) + nodepairs_(47,_15) + nodepairs_(47,_16)
 + nodepairs_(47,_17) + nodepairs_(47,_19) + nodepairs_(47,_21)
 + nodepairs_(47,_22) + nodepairs_(47,_23) + nodepairs_(47,_24)
 + nodepairs_(47,_25) + nodepairs_(47,_26) + nodepairs_(47,_27)
 + nodepairs_(47,_28) + nodepairs_(47,_29) + nodepairs_(47,_3)
 + nodepairs_(47,_30) + nodepairs_(47,_31) + nodepairs_(47,_32)
 + nodepairs_(47,_33) + nodepairs_(47,_34) + nodepairs_(47,_35)
 + nodepairs_(47,_36) + nodepairs_(47,_37) + nodepairs_(47,_38)
 + nodepairs_(47,_39) + nodepairs_(47,_40) + nodepairs_(47,_42)
 + nodepairs_(47,_44) + nodepairs_(47,_45) + nodepairs_(47,_46)
 + nodepairs_(47,_47) + nodepairs_(47,_48) + nodepairs_(47,_49)
 + nodepairs_(47,_5) + nodepairs_(47,_50) + nodepairs_(47,_51)
 + nodepairs_(47,_52) + nodepairs_(47,_53) + nodepairs_(47,_54)
 + nodepairs_(47,_6) + nodepairs_(47,_7) + nodepairs_(47,_8)
 + nodepairs_(47,_9) <= 1
_C480: __dummy <= 0
_C4800: edgepairs_((44,_46),_(28,_29)) + edgepairs_((44,_46),_(29,_30))
 - nodepairs_(44,_29) - nodepairs_(46,_29) <= 0
_C4801: edgepairs_((46,_47),_(28,_29)) + edgepairs_((46,_47),_(29,_30))
 - nodepairs_(46,_29) - nodepairs_(47,_29) <= 0
_C4802: edgepairs_((47,_48),_(28,_29)) + edgepairs_((47,_48),_(29,_30))
 - nodepairs_(47,_29) - nodepairs_(48,_29) <= 0
_C4803: edgepairs_((48,_49),_(28,_29)) + edgepairs_((48,_49),_(29,_30))
 - nodepairs_(48,_29) - nodepairs_(49,_29) <= 0
_C4804: edgepairs_((49,_50),_(28,_29)) + edgepairs_((49,_50),_(29,_30))
 - nodepairs_(49,_29) - nodepairs_(50,_29) <= 0
_C4805: edgepairs_((50,_51),_(28,_29)) + edgepairs_((50,_51),_(29,_30))
 - nodepairs_(50,_29) - nodepairs_(51,_29) <= 0
_C4806: edgepairs_((51,_52),_(28,_29)) + edgepairs_((51,_52),_(29,_30))
 - nodepairs_(51,_29) - nodepairs_(52,_29) <= 0
_C4807: edgepairs_((52,_53),_(28,_29)) + edgepairs_((52,_53),_(29,_30))
 - nodepairs_(52,_29) - nodepairs_(53,_29) <= 0
_C4808: edgepairs_((53,_54),_(28,_29)) + edgepairs_((53,_54),_(29,_30))
 - nodepairs_(53,_29) - nodepairs_(54,_29) <= 0
_C4809: edgepairs_((0,_1),_(29,_30)) + edgepairs_((0,_1),_(30,_31))
 - nodepairs_(0,_30) - nodepairs_(1,_30) <= 0
_C481: __dummy <= 0
_C4810: edgepairs_((0,_26),_(29,_30)) + edgepairs_((0,_26),_(30,_31))
 - nodepairs_(0,_30) - nodepairs_(26,_30) <= 0
_C4811: - nodepairs_(0,_30) <= 0
_C4812: - nodepairs_(1,_30) <= 0
_C4813: - nodepairs_(3,_30) <= 0
_C4814: - nodepairs_(3,_30) <= 0
_C4815: edgepairs_((3,_5),_(29,_30)) + edgepairs_((3,_5),_(30,_31))
 - nodepairs_(3,_30) - nodepairs_(5,_30) <= 0
_C4816: edgepairs_((5,_6),_(29,_30)) + edgepairs_((5,_6),_(30,_31))
 - nodepairs_(5,_30) - nodepairs_(6,_30) <= 0
_C4817: edgepairs_((6,_7),_(29,_30)) + edgepairs_((6,_7),_(30,_31))
 - nodepairs_(6,_30) - nodepairs_(7,_30) <= 0
_C4818: edgepairs_((7,_8),_(29,_30)) + edgepairs_((7,_8),_(30,_31))
 - nodepairs_(7,_30) - nodepairs_(8,_30) <= 0
_C4819: edgepairs_((8,_9),_(29,_30)) + edgepairs_((8,_9),_(30,_31))
 - nodepairs_(8,_30) - nodepairs_(9,_30) <= 0
_C482: __dummy <= 0
_C4820: edgepairs_((9,_10),_(29,_30)) + edgepairs_((9,_10),_(30,_31))
 - nodepairs_(10,_30) - nodepairs_(9,_30) <= 0
_C4821: edgepairs_((10,_11),_(29,_30)) + edgepairs_((10,_11),_(30,_31))
 - nodepairs_(10,_30) - nodepairs_(11,_30) <= 0
_C4822: edgepairs_((11,_12),_(29,_30)) + edgepairs_((11,_12),_(30,_31))
 - nodepairs_(11,_30) - nodepairs_(12,_30) <= 0
_C4823: edgepairs_((12,_13),_(29,_30)) + edgepairs_((12,_13),_(30,_31))
 - nodepairs_(12,_30) - nodepairs_(13,_30) <= 0
_C4824: edgepairs_((13,_14),_(29,_30)) + edgepairs_((13,_14),_(30,_31))
 - nodepairs_(13,_30) - nodepairs_(14,_30) <= 0
_C4825: edgepairs_((14,_15),_(29,_30)) + edgepairs_((14,_15),_(30,_31))
 - nodepairs_(14,_30) - nodepairs_(15,_30) <= 0
_C4826: edgepairs_((15,_16),_(29,_30)) + edgepairs_((15,_16),_(30,_31))
 - nodepairs_(15,_30) - nodepairs_(16,_30) <= 0
_C4827: edgepairs_((16,_17),_(29,_30)) + edgepairs_((16,_17),_(30,_31))
 - nodepairs_(16,_30) - nodepairs_(17,_30) <= 0
_C4828: edgepairs_((17,_18),_(29,_30)) + edgepairs_((17,_18),_(30,_31))
 - nodepairs_(17,_30) - nodepairs_(18,_30) <= 0
_C4829: edgepairs_((18,_19),_(29,_30)) + edgepairs_((18,_19),_(30,_31))
 - nodepairs_(18,_30) - nodepairs_(19,_30) <= 0
_C483: __dummy <= 0
_C4830: edgepairs_((19,_20),_(29,_30)) + edgepairs_((19,_20),_(30,_31))
 - nodepairs_(19,_30) - nodepairs_(20,_30) <= 0
_C4831: edgepairs_((20,_21),_(29,_30)) + edgepairs_((20,_21),_(30,_31))
 - nodepairs_(20,_30) - nodepairs_(21,_30) <= 0
_C4832: edgepairs_((21,_22),_(29,_30)) + edgepairs_((21,_22),_(30,_31))
 - nodepairs_(21,_30) - nodepairs_(22,_30) <= 0
_C4833: edgepairs_((22,_23),_(29,_30)) + edgepairs_((22,_23),_(30,_31))
 - nodepairs_(22,_30) - nodepairs_(23,_30) <= 0
_C4834: edgepairs_((23,_24),_(29,_30)) + edgepairs_((23,_24),_(30,_31))
 - nodepairs_(23,_30) - nodepairs_(24,_30) <= 0
_C4835: edgepairs_((23,_25),_(29,_30)) + edgepairs_((23,_25),_(30,_31))
 - nodepairs_(23,_30) - nodepairs_(25,_30) <= 0
_C4836: - nodepairs_(26,_30) <= 0
_C4837: - nodepairs_(28,_30) <= 0
_C4838: - nodepairs_(28,_30) <= 0
_C4839: edgepairs_((28,_30),_(29,_30)) + edgepairs_((28,_30),_(30,_31))
 - nodepairs_(28,_30) - nodepairs_(30,_30) <= 0
_C484: __dummy <= 0
_C4840: edgepairs_((30,_31),_(29,_30)) + edgepairs_((30,_31),_(30,_31))
 - nodepairs_(30,_30) - nodepairs_(31,_30) <= 0
_C4841: edgepairs_((31,_32),_(29,_30)) + edgepairs_((31,_32),_(30,_31))
 - nodepairs_(31,_30) - nodepairs_(32,_30) <= 0
_C4842: edgepairs_((32,_33),_(29,_30)) + edgepairs_((32,_33),_(30,_31))
 - nodepairs_(32,_30) - nodepairs_(33,_30) <= 0
_C4843: edgepairs_((33,_34),_(29,_30)) + edgepairs_((33,_34),_(30,_31))
 - nodepairs_(33,_30) - nodepairs_(34,_30) <= 0
_C4844: edgepairs_((34,_35),_(29,_30)) + edgepairs_((34,_35),_(30,_31))
 - nodepairs_(34,_30) - nodepairs_(35,_30) <= 0
_C4845: edgepairs_((35,_36),_(29,_30)) + edgepairs_((35,_36),_(30,_31))
 - nodepairs_(35,_30) - nodepairs_(36,_30) <= 0
_C4846: edgepairs_((36,_37),_(29,_30)) + edgepairs_((36,_37),_(30,_31))
 - nodepairs_(36,_30) - nodepairs_(37,_30) <= 0
_C4847: edgepairs_((37,_38),_(29,_30)) + edgepairs_((37,_38),_(30,_31))
 - nodepairs_(37,_30) - nodepairs_(38,_30) <= 0
_C4848: edgepairs_((38,_39),_(29,_30)) + edgepairs_((38,_39),_(30,_31))
 - nodepairs_(38,_30) - nodepairs_(39,_30) <= 0
_C4849: edgepairs_((39,_40),_(29,_30)) + edgepairs_((39,_40),_(30,_31))
 - nodepairs_(39,_30) - nodepairs_(40,_30) <= 0
_C485: __dummy <= 0
_C4850: edgepairs_((40,_41),_(29,_30)) + edgepairs_((40,_41),_(30,_31))
 - nodepairs_(40,_30) - nodepairs_(41,_30) <= 0
_C4851: edgepairs_((40,_42),_(29,_30)) + edgepairs_((40,_42),_(30,_31))
 - nodepairs_(40,_30) - nodepairs_(42,_30) <= 0
_C4852: - nodepairs_(44,_30) <= 0
_C4853: - nodepairs_(44,_30) <= 0
_C4854: edgepairs_((44,_46),_(29,_30)) + edgepairs_((44,_46),_(30,_31))
 - nodepairs_(44,_30) - nodepairs_(46,_30) <= 0
_C4855: edgepairs_((46,_47),_(29,_30)) + edgepairs_((46,_47),_(30,_31))
 - nodepairs_(46,_30) - nodepairs_(47,_30) <= 0
_C4856: edgepairs_((47,_48),_(29,_30)) + edgepairs_((47,_48),_(30,_31))
 - nodepairs_(47,_30) - nodepairs_(48,_30) <= 0
_C4857: edgepairs_((48,_49),_(29,_30)) + edgepairs_((48,_49),_(30,_31))
 - nodepairs_(48,_30) - nodepairs_(49,_30) <= 0
_C4858: edgepairs_((49,_50),_(29,_30)) + edgepairs_((49,_50),_(30,_31))
 - nodepairs_(49,_30) - nodepairs_(50,_30) <= 0
_C4859: edgepairs_((50,_51),_(29,_30)) + edgepairs_((50,_51),_(30,_31))
 - nodepairs_(50,_30) - nodepairs_(51,_30) <= 0
_C486: __dummy <= 0
_C4860: edgepairs_((51,_52),_(29,_30)) + edgepairs_((51,_52),_(30,_31))
 - nodepairs_(51,_30) - nodepairs_(52,_30) <= 0
_C4861: edgepairs_((52,_53),_(29,_30)) + edgepairs_((52,_53),_(30,_31))
 - nodepairs_(52,_30) - nodepairs_(53,_30) <= 0
_C4862: edgepairs_((53,_54),_(29,_30)) + edgepairs_((53,_54),_(30,_31))
 - nodepairs_(53,_30) - nodepairs_(54,_30) <= 0
_C4863: edgepairs_((0,_1),_(30,_31)) + edgepairs_((0,_1),_(31,_32))
 - nodepairs_(0,_31) - nodepairs_(1,_31) <= 0
_C4864: edgepairs_((0,_26),_(30,_31)) + edgepairs_((0,_26),_(31,_32))
 - nodepairs_(0,_31) - nodepairs_(26,_31) <= 0
_C4865: - nodepairs_(0,_31) <= 0
_C4866: - nodepairs_(1,_31) <= 0
_C4867: - nodepairs_(3,_31) <= 0
_C4868: - nodepairs_(3,_31) <= 0
_C4869: edgepairs_((3,_5),_(30,_31)) + edgepairs_((3,_5),_(31,_32))
 - nodepairs_(3,_31) - nodepairs_(5,_31) <= 0
_C487: __dummy <= 0
_C4870: edgepairs_((5,_6),_(30,_31)) + edgepairs_((5,_6),_(31,_32))
 - nodepairs_(5,_31) - nodepairs_(6,_31) <= 0
_C4871: edgepairs_((6,_7),_(30,_31)) + edgepairs_((6,_7),_(31,_32))
 - nodepairs_(6,_31) - nodepairs_(7,_31) <= 0
_C4872: edgepairs_((7,_8),_(30,_31)) + edgepairs_((7,_8),_(31,_32))
 - nodepairs_(7,_31) - nodepairs_(8,_31) <= 0
_C4873: edgepairs_((8,_9),_(30,_31)) + edgepairs_((8,_9),_(31,_32))
 - nodepairs_(8,_31) - nodepairs_(9,_31) <= 0
_C4874: edgepairs_((9,_10),_(30,_31)) + edgepairs_((9,_10),_(31,_32))
 - nodepairs_(10,_31) - nodepairs_(9,_31) <= 0
_C4875: edgepairs_((10,_11),_(30,_31)) + edgepairs_((10,_11),_(31,_32))
 - nodepairs_(10,_31) - nodepairs_(11,_31) <= 0
_C4876: edgepairs_((11,_12),_(30,_31)) + edgepairs_((11,_12),_(31,_32))
 - nodepairs_(11,_31) - nodepairs_(12,_31) <= 0
_C4877: edgepairs_((12,_13),_(30,_31)) + edgepairs_((12,_13),_(31,_32))
 - nodepairs_(12,_31) - nodepairs_(13,_31) <= 0
_C4878: edgepairs_((13,_14),_(30,_31)) + edgepairs_((13,_14),_(31,_32))
 - nodepairs_(13,_31) - nodepairs_(14,_31) <= 0
_C4879: edgepairs_((14,_15),_(30,_31)) + edgepairs_((14,_15),_(31,_32))
 - nodepairs_(14,_31) - nodepairs_(15,_31) <= 0
_C488: __dummy <= 0
_C4880: edgepairs_((15,_16),_(30,_31)) + edgepairs_((15,_16),_(31,_32))
 - nodepairs_(15,_31) - nodepairs_(16,_31) <= 0
_C4881: edgepairs_((16,_17),_(30,_31)) + edgepairs_((16,_17),_(31,_32))
 - nodepairs_(16,_31) - nodepairs_(17,_31) <= 0
_C4882: edgepairs_((17,_18),_(30,_31)) + edgepairs_((17,_18),_(31,_32))
 - nodepairs_(17,_31) - nodepairs_(18,_31) <= 0
_C4883: edgepairs_((18,_19),_(30,_31)) + edgepairs_((18,_19),_(31,_32))
 - nodepairs_(18,_31) - nodepairs_(19,_31) <= 0
_C4884: edgepairs_((19,_20),_(30,_31)) + edgepairs_((19,_20),_(31,_32))
 - nodepairs_(19,_31) - nodepairs_(20,_31) <= 0
_C4885: edgepairs_((20,_21),_(30,_31)) + edgepairs_((20,_21),_(31,_32))
 - nodepairs_(20,_31) - nodepairs_(21,_31) <= 0
_C4886: edgepairs_((21,_22),_(30,_31)) + edgepairs_((21,_22),_(31,_32))
 - nodepairs_(21,_31) - nodepairs_(22,_31) <= 0
_C4887: edgepairs_((22,_23),_(30,_31)) + edgepairs_((22,_23),_(31,_32))
 - nodepairs_(22,_31) - nodepairs_(23,_31) <= 0
_C4888: edgepairs_((23,_24),_(30,_31)) + edgepairs_((23,_24),_(31,_32))
 - nodepairs_(23,_31) - nodepairs_(24,_31) <= 0
_C4889: edgepairs_((23,_25),_(30,_31)) + edgepairs_((23,_25),_(31,_32))
 - nodepairs_(23,_31) - nodepairs_(25,_31) <= 0
_C489: edgepairs_((3,_5),_(0,_1)) + edgepairs_((5,_6),_(0,_1))
 - nodepairs_(5,_0) - nodepairs_(5,_1) <= 0
_C4890: - nodepairs_(26,_31) <= 0
_C4891: - nodepairs_(28,_31) <= 0
_C4892: - nodepairs_(28,_31) <= 0
_C4893: edgepairs_((28,_30),_(30,_31)) + edgepairs_((28,_30),_(31,_32))
 - nodepairs_(28,_31) - nodepairs_(30,_31) <= 0
_C4894: edgepairs_((30,_31),_(30,_31)) + edgepairs_((30,_31),_(31,_32))
 - nodepairs_(30,_31) - nodepairs_(31,_31) <= 0
_C4895: edgepairs_((31,_32),_(30,_31)) + edgepairs_((31,_32),_(31,_32))
 - nodepairs_(31,_31) - nodepairs_(32,_31) <= 0
_C4896: edgepairs_((32,_33),_(30,_31)) + edgepairs_((32,_33),_(31,_32))
 - nodepairs_(32,_31) - nodepairs_(33,_31) <= 0
_C4897: edgepairs_((33,_34),_(30,_31)) + edgepairs_((33,_34),_(31,_32))
 - nodepairs_(33,_31) - nodepairs_(34,_31) <= 0
_C4898: edgepairs_((34,_35),_(30,_31)) + edgepairs_((34,_35),_(31,_32))
 - nodepairs_(34,_31) - nodepairs_(35,_31) <= 0
_C4899: edgepairs_((35,_36),_(30,_31)) + edgepairs_((35,_36),_(31,_32))
 - nodepairs_(35,_31) - nodepairs_(36,_31) <= 0
_C49: nodepairs_(48,_0) + nodepairs_(48,_1) + nodepairs_(48,_10)
 + nodepairs_(48,_11) + nodepairs_(48,_12) + nodepairs_(48,_13)
 + nodepairs_(48,_14) + nodepairs_(48,_15) + nodepairs_(48,_16)
 + nodepairs_(48,_17) + nodepairs_(48,_19) + nodepairs_(48,_21)
 + nodepairs_(48,_22) + nodepairs_(48,_23) + nodepairs_(48,_24)
 + nodepairs_(48,_25) + nodepairs_(48,_26) + nodepairs_(48,_27)
 + nodepairs_(48,_28) + nodepairs_(48,_29) + nodepairs_(48,_3)
 + nodepairs_(48,_30) + nodepairs_(48,_31) + nodepairs_(48,_32)
 + nodepairs_(48,_33) + nodepairs_(48,_34) + nodepairs_(48,_35)
 + nodepairs_(48,_36) + nodepairs_(48,_37) + nodepairs_(48,_38)
 + nodepairs_(48,_39) + nodepairs_(48,_40) + nodepairs_(48,_42)
 + nodepairs_(48,_44) + nodepairs_(48,_45) + nodepairs_(48,_46)
 + nodepairs_(48,_47) + nodepairs_(48,_48) + nodepairs_(48,_49)
 + nodepairs_(48,_5) + nodepairs_(48,_50) + nodepairs_(48,_51)
 + nodepairs_(48,_52) + nodepairs_(48,_53) + nodepairs_(48,_54)
 + nodepairs_(48,_6) + nodepairs_(48,_7) + nodepairs_(48,_8)
 + nodepairs_(48,_9) <= 1
_C490: edgepairs_((3,_5),_(0,_17)) + edgepairs_((5,_6),_(0,_17))
 - nodepairs_(5,_0) - nodepairs_(5,_17) <= 0
_C4900: edgepairs_((36,_37),_(30,_31)) + edgepairs_((36,_37),_(31,_32))
 - nodepairs_(36,_31) - nodepairs_(37,_31) <= 0
_C4901: edgepairs_((37,_38),_(30,_31)) + edgepairs_((37,_38),_(31,_32))
 - nodepairs_(37,_31) - nodepairs_(38,_31) <= 0
_C4902: edgepairs_((38,_39),_(30,_31)) + edgepairs_((38,_39),_(31,_32))
 - nodepairs_(38,_31) - nodepairs_(39,_31) <= 0
_C4903: edgepairs_((39,_40),_(30,_31)) + edgepairs_((39,_40),_(31,_32))
 - nodepairs_(39,_31) - nodepairs_(40,_31) <= 0
_C4904: edgepairs_((40,_41),_(30,_31)) + edgepairs_((40,_41),_(31,_32))
 - nodepairs_(40,_31) - nodepairs_(41,_31) <= 0
_C4905: edgepairs_((40,_42),_(30,_31)) + edgepairs_((40,_42),_(31,_32))
 - nodepairs_(40,_31) - nodepairs_(42,_31) <= 0
_C4906: - nodepairs_(44,_31) <= 0
_C4907: - nodepairs_(44,_31) <= 0
_C4908: edgepairs_((44,_46),_(30,_31)) + edgepairs_((44,_46),_(31,_32))
 - nodepairs_(44,_31) - nodepairs_(46,_31) <= 0
_C4909: edgepairs_((46,_47),_(30,_31)) + edgepairs_((46,_47),_(31,_32))
 - nodepairs_(46,_31) - nodepairs_(47,_31) <= 0
_C491: - nodepairs_(5,_0) <= 0
_C4910: edgepairs_((47,_48),_(30,_31)) + edgepairs_((47,_48),_(31,_32))
 - nodepairs_(47,_31) - nodepairs_(48,_31) <= 0
_C4911: edgepairs_((48,_49),_(30,_31)) + edgepairs_((48,_49),_(31,_32))
 - nodepairs_(48,_31) - nodepairs_(49,_31) <= 0
_C4912: edgepairs_((49,_50),_(30,_31)) + edgepairs_((49,_50),_(31,_32))
 - nodepairs_(49,_31) - nodepairs_(50,_31) <= 0
_C4913: edgepairs_((50,_51),_(30,_31)) + edgepairs_((50,_51),_(31,_32))
 - nodepairs_(50,_31) - nodepairs_(51,_31) <= 0
_C4914: edgepairs_((51,_52),_(30,_31)) + edgepairs_((51,_52),_(31,_32))
 - nodepairs_(51,_31) - nodepairs_(52,_31) <= 0
_C4915: edgepairs_((52,_53),_(30,_31)) + edgepairs_((52,_53),_(31,_32))
 - nodepairs_(52,_31) - nodepairs_(53,_31) <= 0
_C4916: edgepairs_((53,_54),_(30,_31)) + edgepairs_((53,_54),_(31,_32))
 - nodepairs_(53,_31) - nodepairs_(54,_31) <= 0
_C4917: edgepairs_((0,_1),_(31,_32)) + edgepairs_((0,_1),_(32,_33))
 - nodepairs_(0,_32) - nodepairs_(1,_32) <= 0
_C4918: edgepairs_((0,_26),_(31,_32)) + edgepairs_((0,_26),_(32,_33))
 - nodepairs_(0,_32) - nodepairs_(26,_32) <= 0
_C4919: - nodepairs_(0,_32) <= 0
_C492: - nodepairs_(5,_1) <= 0
_C4920: - nodepairs_(1,_32) <= 0
_C4921: - nodepairs_(3,_32) <= 0
_C4922: - nodepairs_(3,_32) <= 0
_C4923: edgepairs_((3,_5),_(31,_32)) + edgepairs_((3,_5),_(32,_33))
 - nodepairs_(3,_32) - nodepairs_(5,_32) <= 0
_C4924: edgepairs_((5,_6),_(31,_32)) + edgepairs_((5,_6),_(32,_33))
 - nodepairs_(5,_32) - nodepairs_(6,_32) <= 0
_C4925: edgepairs_((6,_7),_(31,_32)) + edgepairs_((6,_7),_(32,_33))
 - nodepairs_(6,_32) - nodepairs_(7,_32) <= 0
_C4926: edgepairs_((7,_8),_(31,_32)) + edgepairs_((7,_8),_(32,_33))
 - nodepairs_(7,_32) - nodepairs_(8,_32) <= 0
_C4927: edgepairs_((8,_9),_(31,_32)) + edgepairs_((8,_9),_(32,_33))
 - nodepairs_(8,_32) - nodepairs_(9,_32) <= 0
_C4928: edgepairs_((9,_10),_(31,_32)) + edgepairs_((9,_10),_(32,_33))
 - nodepairs_(10,_32) - nodepairs_(9,_32) <= 0
_C4929: edgepairs_((10,_11),_(31,_32)) + edgepairs_((10,_11),_(32,_33))
 - nodepairs_(10,_32) - nodepairs_(11,_32) <= 0
_C493: - nodepairs_(5,_3) <= 0
_C4930: edgepairs_((11,_12),_(31,_32)) + edgepairs_((11,_12),_(32,_33))
 - nodepairs_(11,_32) - nodepairs_(12,_32) <= 0
_C4931: edgepairs_((12,_13),_(31,_32)) + edgepairs_((12,_13),_(32,_33))
 - nodepairs_(12,_32) - nodepairs_(13,_32) <= 0
_C4932: edgepairs_((13,_14),_(31,_32)) + edgepairs_((13,_14),_(32,_33))
 - nodepairs_(13,_32) - nodepairs_(14,_32) <= 0
_C4933: edgepairs_((14,_15),_(31,_32)) + edgepairs_((14,_15),_(32,_33))
 - nodepairs_(14,_32) - nodepairs_(15,_32) <= 0
_C4934: edgepairs_((15,_16),_(31,_32)) + edgepairs_((15,_16),_(32,_33))
 - nodepairs_(15,_32) - nodepairs_(16,_32) <= 0
_C4935: edgepairs_((16,_17),_(31,_32)) + edgepairs_((16,_17),_(32,_33))
 - nodepairs_(16,_32) - nodepairs_(17,_32) <= 0
_C4936: edgepairs_((17,_18),_(31,_32)) + edgepairs_((17,_18),_(32,_33))
 - nodepairs_(17,_32) - nodepairs_(18,_32) <= 0
_C4937: edgepairs_((18,_19),_(31,_32)) + edgepairs_((18,_19),_(32,_33))
 - nodepairs_(18,_32) - nodepairs_(19,_32) <= 0
_C4938: edgepairs_((19,_20),_(31,_32)) + edgepairs_((19,_20),_(32,_33))
 - nodepairs_(19,_32) - nodepairs_(20,_32) <= 0
_C4939: edgepairs_((20,_21),_(31,_32)) + edgepairs_((20,_21),_(32,_33))
 - nodepairs_(20,_32) - nodepairs_(21,_32) <= 0
_C494: - nodepairs_(5,_3) <= 0
_C4940: edgepairs_((21,_22),_(31,_32)) + edgepairs_((21,_22),_(32,_33))
 - nodepairs_(21,_32) - nodepairs_(22,_32) <= 0
_C4941: edgepairs_((22,_23),_(31,_32)) + edgepairs_((22,_23),_(32,_33))
 - nodepairs_(22,_32) - nodepairs_(23,_32) <= 0
_C4942: edgepairs_((23,_24),_(31,_32)) + edgepairs_((23,_24),_(32,_33))
 - nodepairs_(23,_32) - nodepairs_(24,_32) <= 0
_C4943: edgepairs_((23,_25),_(31,_32)) + edgepairs_((23,_25),_(32,_33))
 - nodepairs_(23,_32) - nodepairs_(25,_32) <= 0
_C4944: - nodepairs_(26,_32) <= 0
_C4945: - nodepairs_(28,_32) <= 0
_C4946: - nodepairs_(28,_32) <= 0
_C4947: edgepairs_((28,_30),_(31,_32)) + edgepairs_((28,_30),_(32,_33))
 - nodepairs_(28,_32) - nodepairs_(30,_32) <= 0
_C4948: edgepairs_((30,_31),_(31,_32)) + edgepairs_((30,_31),_(32,_33))
 - nodepairs_(30,_32) - nodepairs_(31,_32) <= 0
_C4949: edgepairs_((31,_32),_(31,_32)) + edgepairs_((31,_32),_(32,_33))
 - nodepairs_(31,_32) - nodepairs_(32,_32) <= 0
_C495: edgepairs_((3,_5),_(3,_5)) + edgepairs_((5,_6),_(3,_5))
 - nodepairs_(5,_3) - nodepairs_(5,_5) <= 0
_C4950: edgepairs_((32,_33),_(31,_32)) + edgepairs_((32,_33),_(32,_33))
 - nodepairs_(32,_32) - nodepairs_(33,_32) <= 0
_C4951: edgepairs_((33,_34),_(31,_32)) + edgepairs_((33,_34),_(32,_33))
 - nodepairs_(33,_32) - nodepairs_(34,_32) <= 0
_C4952: edgepairs_((34,_35),_(31,_32)) + edgepairs_((34,_35),_(32,_33))
 - nodepairs_(34,_32) - nodepairs_(35,_32) <= 0
_C4953: edgepairs_((35,_36),_(31,_32)) + edgepairs_((35,_36),_(32,_33))
 - nodepairs_(35,_32) - nodepairs_(36,_32) <= 0
_C4954: edgepairs_((36,_37),_(31,_32)) + edgepairs_((36,_37),_(32,_33))
 - nodepairs_(36,_32) - nodepairs_(37,_32) <= 0
_C4955: edgepairs_((37,_38),_(31,_32)) + edgepairs_((37,_38),_(32,_33))
 - nodepairs_(37,_32) - nodepairs_(38,_32) <= 0
_C4956: edgepairs_((38,_39),_(31,_32)) + edgepairs_((38,_39),_(32,_33))
 - nodepairs_(38,_32) - nodepairs_(39,_32) <= 0
_C4957: edgepairs_((39,_40),_(31,_32)) + edgepairs_((39,_40),_(32,_33))
 - nodepairs_(39,_32) - nodepairs_(40,_32) <= 0
_C4958: edgepairs_((40,_41),_(31,_32)) + edgepairs_((40,_41),_(32,_33))
 - nodepairs_(40,_32) - nodepairs_(41,_32) <= 0
_C4959: edgepairs_((40,_42),_(31,_32)) + edgepairs_((40,_42),_(32,_33))
 - nodepairs_(40,_32) - nodepairs_(42,_32) <= 0
_C496: edgepairs_((3,_5),_(5,_6)) + edgepairs_((5,_6),_(5,_6))
 - nodepairs_(5,_5) - nodepairs_(5,_6) <= 0
_C4960: - nodepairs_(44,_32) <= 0
_C4961: - nodepairs_(44,_32) <= 0
_C4962: edgepairs_((44,_46),_(31,_32)) + edgepairs_((44,_46),_(32,_33))
 - nodepairs_(44,_32) - nodepairs_(46,_32) <= 0
_C4963: edgepairs_((46,_47),_(31,_32)) + edgepairs_((46,_47),_(32,_33))
 - nodepairs_(46,_32) - nodepairs_(47,_32) <= 0
_C4964: edgepairs_((47,_48),_(31,_32)) + edgepairs_((47,_48),_(32,_33))
 - nodepairs_(47,_32) - nodepairs_(48,_32) <= 0
_C4965: edgepairs_((48,_49),_(31,_32)) + edgepairs_((48,_49),_(32,_33))
 - nodepairs_(48,_32) - nodepairs_(49,_32) <= 0
_C4966: edgepairs_((49,_50),_(31,_32)) + edgepairs_((49,_50),_(32,_33))
 - nodepairs_(49,_32) - nodepairs_(50,_32) <= 0
_C4967: edgepairs_((50,_51),_(31,_32)) + edgepairs_((50,_51),_(32,_33))
 - nodepairs_(50,_32) - nodepairs_(51,_32) <= 0
_C4968: edgepairs_((51,_52),_(31,_32)) + edgepairs_((51,_52),_(32,_33))
 - nodepairs_(51,_32) - nodepairs_(52,_32) <= 0
_C4969: edgepairs_((52,_53),_(31,_32)) + edgepairs_((52,_53),_(32,_33))
 - nodepairs_(52,_32) - nodepairs_(53,_32) <= 0
_C497: edgepairs_((3,_5),_(6,_7)) + edgepairs_((5,_6),_(6,_7))
 - nodepairs_(5,_6) - nodepairs_(5,_7) <= 0
_C4970: edgepairs_((53,_54),_(31,_32)) + edgepairs_((53,_54),_(32,_33))
 - nodepairs_(53,_32) - nodepairs_(54,_32) <= 0
_C4971: edgepairs_((0,_1),_(32,_33)) + edgepairs_((0,_1),_(33,_34))
 - nodepairs_(0,_33) - nodepairs_(1,_33) <= 0
_C4972: edgepairs_((0,_26),_(32,_33)) + edgepairs_((0,_26),_(33,_34))
 - nodepairs_(0,_33) - nodepairs_(26,_33) <= 0
_C4973: - nodepairs_(0,_33) <= 0
_C4974: - nodepairs_(1,_33) <= 0
_C4975: - nodepairs_(3,_33) <= 0
_C4976: - nodepairs_(3,_33) <= 0
_C4977: edgepairs_((3,_5),_(32,_33)) + edgepairs_((3,_5),_(33,_34))
 - nodepairs_(3,_33) - nodepairs_(5,_33) <= 0
_C4978: edgepairs_((5,_6),_(32,_33)) + edgepairs_((5,_6),_(33,_34))
 - nodepairs_(5,_33) - nodepairs_(6,_33) <= 0
_C4979: edgepairs_((6,_7),_(32,_33)) + edgepairs_((6,_7),_(33,_34))
 - nodepairs_(6,_33) - nodepairs_(7,_33) <= 0
_C498: edgepairs_((3,_5),_(7,_8)) + edgepairs_((5,_6),_(7,_8))
 - nodepairs_(5,_7) - nodepairs_(5,_8) <= 0
_C4980: edgepairs_((7,_8),_(32,_33)) + edgepairs_((7,_8),_(33,_34))
 - nodepairs_(7,_33) - nodepairs_(8,_33) <= 0
_C4981: edgepairs_((8,_9),_(32,_33)) + edgepairs_((8,_9),_(33,_34))
 - nodepairs_(8,_33) - nodepairs_(9,_33) <= 0
_C4982: edgepairs_((9,_10),_(32,_33)) + edgepairs_((9,_10),_(33,_34))
 - nodepairs_(10,_33) - nodepairs_(9,_33) <= 0
_C4983: edgepairs_((10,_11),_(32,_33)) + edgepairs_((10,_11),_(33,_34))
 - nodepairs_(10,_33) - nodepairs_(11,_33) <= 0
_C4984: edgepairs_((11,_12),_(32,_33)) + edgepairs_((11,_12),_(33,_34))
 - nodepairs_(11,_33) - nodepairs_(12,_33) <= 0
_C4985: edgepairs_((12,_13),_(32,_33)) + edgepairs_((12,_13),_(33,_34))
 - nodepairs_(12,_33) - nodepairs_(13,_33) <= 0
_C4986: edgepairs_((13,_14),_(32,_33)) + edgepairs_((13,_14),_(33,_34))
 - nodepairs_(13,_33) - nodepairs_(14,_33) <= 0
_C4987: edgepairs_((14,_15),_(32,_33)) + edgepairs_((14,_15),_(33,_34))
 - nodepairs_(14,_33) - nodepairs_(15,_33) <= 0
_C4988: edgepairs_((15,_16),_(32,_33)) + edgepairs_((15,_16),_(33,_34))
 - nodepairs_(15,_33) - nodepairs_(16,_33) <= 0
_C4989: edgepairs_((16,_17),_(32,_33)) + edgepairs_((16,_17),_(33,_34))
 - nodepairs_(16,_33) - nodepairs_(17,_33) <= 0
_C499: edgepairs_((3,_5),_(8,_9)) + edgepairs_((5,_6),_(8,_9))
 - nodepairs_(5,_8) - nodepairs_(5,_9) <= 0
_C4990: edgepairs_((17,_18),_(32,_33)) + edgepairs_((17,_18),_(33,_34))
 - nodepairs_(17,_33) - nodepairs_(18,_33) <= 0
_C4991: edgepairs_((18,_19),_(32,_33)) + edgepairs_((18,_19),_(33,_34))
 - nodepairs_(18,_33) - nodepairs_(19,_33) <= 0
_C4992: edgepairs_((19,_20),_(32,_33)) + edgepairs_((19,_20),_(33,_34))
 - nodepairs_(19,_33) - nodepairs_(20,_33) <= 0
_C4993: edgepairs_((20,_21),_(32,_33)) + edgepairs_((20,_21),_(33,_34))
 - nodepairs_(20,_33) - nodepairs_(21,_33) <= 0
_C4994: edgepairs_((21,_22),_(32,_33)) + edgepairs_((21,_22),_(33,_34))
 - nodepairs_(21,_33) - nodepairs_(22,_33) <= 0
_C4995: edgepairs_((22,_23),_(32,_33)) + edgepairs_((22,_23),_(33,_34))
 - nodepairs_(22,_33) - nodepairs_(23,_33) <= 0
_C4996: edgepairs_((23,_24),_(32,_33)) + edgepairs_((23,_24),_(33,_34))
 - nodepairs_(23,_33) - nodepairs_(24,_33) <= 0
_C4997: edgepairs_((23,_25),_(32,_33)) + edgepairs_((23,_25),_(33,_34))
 - nodepairs_(23,_33) - nodepairs_(25,_33) <= 0
_C4998: - nodepairs_(26,_33) <= 0
_C4999: - nodepairs_(28,_33) <= 0
_C5: nodepairs_(4,_18) + nodepairs_(4,_2) + nodepairs_(4,_20)
 + nodepairs_(4,_4) + nodepairs_(4,_41) + nodepairs_(4,_43) <= 1
_C50: nodepairs_(49,_0) + nodepairs_(49,_1) + nodepairs_(49,_10)
 + nodepairs_(49,_11) + nodepairs_(49,_12) + nodepairs_(49,_13)
 + nodepairs_(49,_14) + nodepairs_(49,_15) + nodepairs_(49,_16)
 + nodepairs_(49,_17) + nodepairs_(49,_19) + nodepairs_(49,_21)
 + nodepairs_(49,_22) + nodepairs_(49,_23) + nodepairs_(49,_24)
 + nodepairs_(49,_25) + nodepairs_(49,_26) + nodepairs_(49,_27)
 + nodepairs_(49,_28) + nodepairs_(49,_29) + nodepairs_(49,_3)
 + nodepairs_(49,_30) + nodepairs_(49,_31) + nodepairs_(49,_32)
 + nodepairs_(49,_33) + nodepairs_(49,_34) + nodepairs_(49,_35)
 + nodepairs_(49,_36) + nodepairs_(49,_37) + nodepairs_(49,_38)
 + nodepairs_(49,_39) + nodepairs_(49,_40) + nodepairs_(49,_42)
 + nodepairs_(49,_44) + nodepairs_(49,_45) + nodepairs_(49,_46)
 + nodepairs_(49,_47) + nodepairs_(49,_48) + nodepairs_(49,_49)
 + nodepairs_(49,_5) + nodepairs_(49,_50) + nodepairs_(49,_51)
 + nodepairs_(49,_52) + nodepairs_(49,_53) + nodepairs_(49,_54)
 + nodepairs_(49,_6) + nodepairs_(49,_7) + nodepairs_(49,_8)
 + nodepairs_(49,_9) <= 1
_C500: edgepairs_((3,_5),_(9,_10)) + edgepairs_((5,_6),_(9,_10))
 - nodepairs_(5,_10) - nodepairs_(5,_9) <= 0
_C5000: - nodepairs_(28,_33) <= 0
_C5001: edgepairs_((28,_30),_(32,_33)) + edgepairs_((28,_30),_(33,_34))
 - nodepairs_(28,_33) - nodepairs_(30,_33) <= 0
_C5002: edgepairs_((30,_31),_(32,_33)) + edgepairs_((30,_31),_(33,_34))
 - nodepairs_(30,_33) - nodepairs_(31,_33) <= 0
_C5003: edgepairs_((31,_32),_(32,_33)) + edgepairs_((31,_32),_(33,_34))
 - nodepairs_(31,_33) - nodepairs_(32,_33) <= 0
_C5004: edgepairs_((32,_33),_(32,_33)) + edgepairs_((32,_33),_(33,_34))
 - nodepairs_(32,_33) - nodepairs_(33,_33) <= 0
_C5005: edgepairs_((33,_34),_(32,_33)) + edgepairs_((33,_34),_(33,_34))
 - nodepairs_(33,_33) - nodepairs_(34,_33) <= 0
_C5006: edgepairs_((34,_35),_(32,_33)) + edgepairs_((34,_35),_(33,_34))
 - nodepairs_(34,_33) - nodepairs_(35,_33) <= 0
_C5007: edgepairs_((35,_36),_(32,_33)) + edgepairs_((35,_36),_(33,_34))
 - nodepairs_(35,_33) - nodepairs_(36,_33) <= 0
_C5008: edgepairs_((36,_37),_(32,_33)) + edgepairs_((36,_37),_(33,_34))
 - nodepairs_(36,_33) - nodepairs_(37,_33) <= 0
_C5009: edgepairs_((37,_38),_(32,_33)) + edgepairs_((37,_38),_(33,_34))
 - nodepairs_(37,_33) - nodepairs_(38,_33) <= 0
_C501: edgepairs_((3,_5),_(10,_11)) + edgepairs_((5,_6),_(10,_11))
 - nodepairs_(5,_10) - nodepairs_(5,_11) <= 0
_C5010: edgepairs_((38,_39),_(32,_33)) + edgepairs_((38,_39),_(33,_34))
 - nodepairs_(38,_33) - nodepairs_(39,_33) <= 0
_C5011: edgepairs_((39,_40),_(32,_33)) + edgepairs_((39,_40),_(33,_34))
 - nodepairs_(39,_33) - nodepairs_(40,_33) <= 0
_C5012: edgepairs_((40,_41),_(32,_33)) + edgepairs_((40,_41),_(33,_34))
 - nodepairs_(40,_33) - nodepairs_(41,_33) <= 0
_C5013: edgepairs_((40,_42),_(32,_33)) + edgepairs_((40,_42),_(33,_34))
 - nodepairs_(40,_33) - nodepairs_(42,_33) <= 0
_C5014: - nodepairs_(44,_33) <= 0
_C5015: - nodepairs_(44,_33) <= 0
_C5016: edgepairs_((44,_46),_(32,_33)) + edgepairs_((44,_46),_(33,_34))
 - nodepairs_(44,_33) - nodepairs_(46,_33) <= 0
_C5017: edgepairs_((46,_47),_(32,_33)) + edgepairs_((46,_47),_(33,_34))
 - nodepairs_(46,_33) - nodepairs_(47,_33) <= 0
_C5018: edgepairs_((47,_48),_(32,_33)) + edgepairs_((47,_48),_(33,_34))
 - nodepairs_(47,_33) - nodepairs_(48,_33) <= 0
_C5019: edgepairs_((48,_49),_(32,_33)) + edgepairs_((48,_49),_(33,_34))
 - nodepairs_(48,_33) - nodepairs_(49,_33) <= 0
_C502: edgepairs_((3,_5),_(11,_12)) + edgepairs_((5,_6),_(11,_12))
 - nodepairs_(5,_11) - nodepairs_(5,_12) <= 0
_C5020: edgepairs_((49,_50),_(32,_33)) + edgepairs_((49,_50),_(33,_34))
 - nodepairs_(49,_33) - nodepairs_(50,_33) <= 0
_C5021: edgepairs_((50,_51),_(32,_33)) + edgepairs_((50,_51),_(33,_34))
 - nodepairs_(50,_33) - nodepairs_(51,_33) <= 0
_C5022: edgepairs_((51,_52),_(32,_33)) + edgepairs_((51,_52),_(33,_34))
 - nodepairs_(51,_33) - nodepairs_(52,_33) <= 0
_C5023: edgepairs_((52,_53),_(32,_33)) + edgepairs_((52,_53),_(33,_34))
 - nodepairs_(52,_33) - nodepairs_(53,_33) <= 0
_C5024: edgepairs_((53,_54),_(32,_33)) + edgepairs_((53,_54),_(33,_34))
 - nodepairs_(53,_33) - nodepairs_(54,_33) <= 0
_C5025: edgepairs_((0,_1),_(33,_34)) + edgepairs_((0,_1),_(34,_35))
 - nodepairs_(0,_34) - nodepairs_(1,_34) <= 0
_C5026: edgepairs_((0,_26),_(33,_34)) + edgepairs_((0,_26),_(34,_35))
 - nodepairs_(0,_34) - nodepairs_(26,_34) <= 0
_C5027: - nodepairs_(0,_34) <= 0
_C5028: - nodepairs_(1,_34) <= 0
_C5029: - nodepairs_(3,_34) <= 0
_C503: edgepairs_((3,_5),_(12,_13)) + edgepairs_((5,_6),_(12,_13))
 - nodepairs_(5,_12) - nodepairs_(5,_13) <= 0
_C5030: - nodepairs_(3,_34) <= 0
_C5031: edgepairs_((3,_5),_(33,_34)) + edgepairs_((3,_5),_(34,_35))
 - nodepairs_(3,_34) - nodepairs_(5,_34) <= 0
_C5032: edgepairs_((5,_6),_(33,_34)) + edgepairs_((5,_6),_(34,_35))
 - nodepairs_(5,_34) - nodepairs_(6,_34) <= 0
_C5033: edgepairs_((6,_7),_(33,_34)) + edgepairs_((6,_7),_(34,_35))
 - nodepairs_(6,_34) - nodepairs_(7,_34) <= 0
_C5034: edgepairs_((7,_8),_(33,_34)) + edgepairs_((7,_8),_(34,_35))
 - nodepairs_(7,_34) - nodepairs_(8,_34) <= 0
_C5035: edgepairs_((8,_9),_(33,_34)) + edgepairs_((8,_9),_(34,_35))
 - nodepairs_(8,_34) - nodepairs_(9,_34) <= 0
_C5036: edgepairs_((9,_10),_(33,_34)) + edgepairs_((9,_10),_(34,_35))
 - nodepairs_(10,_34) - nodepairs_(9,_34) <= 0
_C5037: edgepairs_((10,_11),_(33,_34)) + edgepairs_((10,_11),_(34,_35))
 - nodepairs_(10,_34) - nodepairs_(11,_34) <= 0
_C5038: edgepairs_((11,_12),_(33,_34)) + edgepairs_((11,_12),_(34,_35))
 - nodepairs_(11,_34) - nodepairs_(12,_34) <= 0
_C5039: edgepairs_((12,_13),_(33,_34)) + edgepairs_((12,_13),_(34,_35))
 - nodepairs_(12,_34) - nodepairs_(13,_34) <= 0
_C504: edgepairs_((3,_5),_(13,_14)) + edgepairs_((5,_6),_(13,_14))
 - nodepairs_(5,_13) - nodepairs_(5,_14) <= 0
_C5040: edgepairs_((13,_14),_(33,_34)) + edgepairs_((13,_14),_(34,_35))
 - nodepairs_(13,_34) - nodepairs_(14,_34) <= 0
_C5041: edgepairs_((14,_15),_(33,_34)) + edgepairs_((14,_15),_(34,_35))
 - nodepairs_(14,_34) - nodepairs_(15,_34) <= 0
_C5042: edgepairs_((15,_16),_(33,_34)) + edgepairs_((15,_16),_(34,_35))
 - nodepairs_(15,_34) - nodepairs_(16,_34) <= 0
_C5043: edgepairs_((16,_17),_(33,_34)) + edgepairs_((16,_17),_(34,_35))
 - nodepairs_(16,_34) - nodepairs_(17,_34) <= 0
_C5044: edgepairs_((17,_18),_(33,_34)) + edgepairs_((17,_18),_(34,_35))
 - nodepairs_(17,_34) - nodepairs_(18,_34) <= 0
_C5045: edgepairs_((18,_19),_(33,_34)) + edgepairs_((18,_19),_(34,_35))
 - nodepairs_(18,_34) - nodepairs_(19,_34) <= 0
_C5046: edgepairs_((19,_20),_(33,_34)) + edgepairs_((19,_20),_(34,_35))
 - nodepairs_(19,_34) - nodepairs_(20,_34) <= 0
_C5047: edgepairs_((20,_21),_(33,_34)) + edgepairs_((20,_21),_(34,_35))
 - nodepairs_(20,_34) - nodepairs_(21,_34) <= 0
_C5048: edgepairs_((21,_22),_(33,_34)) + edgepairs_((21,_22),_(34,_35))
 - nodepairs_(21,_34) - nodepairs_(22,_34) <= 0
_C5049: edgepairs_((22,_23),_(33,_34)) + edgepairs_((22,_23),_(34,_35))
 - nodepairs_(22,_34) - nodepairs_(23,_34) <= 0
_C505: edgepairs_((3,_5),_(14,_15)) + edgepairs_((5,_6),_(14,_15))
 - nodepairs_(5,_14) - nodepairs_(5,_15) <= 0
_C5050: edgepairs_((23,_24),_(33,_34)) + edgepairs_((23,_24),_(34,_35))
 - nodepairs_(23,_34) - nodepairs_(24,_34) <= 0
_C5051: edgepairs_((23,_25),_(33,_34)) + edgepairs_((23,_25),_(34,_35))
 - nodepairs_(23,_34) - nodepairs_(25,_34) <= 0
_C5052: - nodepairs_(26,_34) <= 0
_C5053: - nodepairs_(28,_34) <= 0
_C5054: - nodepairs_(28,_34) <= 0
_C5055: edgepairs_((28,_30),_(33,_34)) + edgepairs_((28,_30),_(34,_35))
 - nodepairs_(28,_34) - nodepairs_(30,_34) <= 0
_C5056: edgepairs_((30,_31),_(33,_34)) + edgepairs_((30,_31),_(34,_35))
 - nodepairs_(30,_34) - nodepairs_(31,_34) <= 0
_C5057: edgepairs_((31,_32),_(33,_34)) + edgepairs_((31,_32),_(34,_35))
 - nodepairs_(31,_34) - nodepairs_(32,_34) <= 0
_C5058: edgepairs_((32,_33),_(33,_34)) + edgepairs_((32,_33),_(34,_35))
 - nodepairs_(32,_34) - nodepairs_(33,_34) <= 0
_C5059: edgepairs_((33,_34),_(33,_34)) + edgepairs_((33,_34),_(34,_35))
 - nodepairs_(33,_34) - nodepairs_(34,_34) <= 0
_C506: edgepairs_((3,_5),_(15,_16)) + edgepairs_((5,_6),_(15,_16))
 - nodepairs_(5,_15) - nodepairs_(5,_16) <= 0
_C5060: edgepairs_((34,_35),_(33,_34)) + edgepairs_((34,_35),_(34,_35))
 - nodepairs_(34,_34) - nodepairs_(35,_34) <= 0
_C5061: edgepairs_((35,_36),_(33,_34)) + edgepairs_((35,_36),_(34,_35))
 - nodepairs_(35,_34) - nodepairs_(36,_34) <= 0
_C5062: edgepairs_((36,_37),_(33,_34)) + edgepairs_((36,_37),_(34,_35))
 - nodepairs_(36,_34) - nodepairs_(37,_34) <= 0
_C5063: edgepairs_((37,_38),_(33,_34)) + edgepairs_((37,_38),_(34,_35))
 - nodepairs_(37,_34) - nodepairs_(38,_34) <= 0
_C5064: edgepairs_((38,_39),_(33,_34)) + edgepairs_((38,_39),_(34,_35))
 - nodepairs_(38,_34) - nodepairs_(39,_34) <= 0
_C5065: edgepairs_((39,_40),_(33,_34)) + edgepairs_((39,_40),_(34,_35))
 - nodepairs_(39,_34) - nodepairs_(40,_34) <= 0
_C5066: edgepairs_((40,_41),_(33,_34)) + edgepairs_((40,_41),_(34,_35))
 - nodepairs_(40,_34) - nodepairs_(41,_34) <= 0
_C5067: edgepairs_((40,_42),_(33,_34)) + edgepairs_((40,_42),_(34,_35))
 - nodepairs_(40,_34) - nodepairs_(42,_34) <= 0
_C5068: - nodepairs_(44,_34) <= 0
_C5069: - nodepairs_(44,_34) <= 0
_C507: - nodepairs_(5,_17) <= 0
_C5070: edgepairs_((44,_46),_(33,_34)) + edgepairs_((44,_46),_(34,_35))
 - nodepairs_(44,_34) - nodepairs_(46,_34) <= 0
_C5071: edgepairs_((46,_47),_(33,_34)) + edgepairs_((46,_47),_(34,_35))
 - nodepairs_(46,_34) - nodepairs_(47,_34) <= 0
_C5072: edgepairs_((47,_48),_(33,_34)) + edgepairs_((47,_48),_(34,_35))
 - nodepairs_(47,_34) - nodepairs_(48,_34) <= 0
_C5073: edgepairs_((48,_49),_(33,_34)) + edgepairs_((48,_49),_(34,_35))
 - nodepairs_(48,_34) - nodepairs_(49,_34) <= 0
_C5074: edgepairs_((49,_50),_(33,_34)) + edgepairs_((49,_50),_(34,_35))
 - nodepairs_(49,_34) - nodepairs_(50,_34) <= 0
_C5075: edgepairs_((50,_51),_(33,_34)) + edgepairs_((50,_51),_(34,_35))
 - nodepairs_(50,_34) - nodepairs_(51,_34) <= 0
_C5076: edgepairs_((51,_52),_(33,_34)) + edgepairs_((51,_52),_(34,_35))
 - nodepairs_(51,_34) - nodepairs_(52,_34) <= 0
_C5077: edgepairs_((52,_53),_(33,_34)) + edgepairs_((52,_53),_(34,_35))
 - nodepairs_(52,_34) - nodepairs_(53,_34) <= 0
_C5078: edgepairs_((53,_54),_(33,_34)) + edgepairs_((53,_54),_(34,_35))
 - nodepairs_(53,_34) - nodepairs_(54,_34) <= 0
_C5079: edgepairs_((0,_1),_(34,_35)) + edgepairs_((0,_1),_(35,_36))
 - nodepairs_(0,_35) - nodepairs_(1,_35) <= 0
_C508: - nodepairs_(5,_19) <= 0
_C5080: edgepairs_((0,_26),_(34,_35)) + edgepairs_((0,_26),_(35,_36))
 - nodepairs_(0,_35) - nodepairs_(26,_35) <= 0
_C5081: - nodepairs_(0,_35) <= 0
_C5082: - nodepairs_(1,_35) <= 0
_C5083: - nodepairs_(3,_35) <= 0
_C5084: - nodepairs_(3,_35) <= 0
_C5085: edgepairs_((3,_5),_(34,_35)) + edgepairs_((3,_5),_(35,_36))
 - nodepairs_(3,_35) - nodepairs_(5,_35) <= 0
_C5086: edgepairs_((5,_6),_(34,_35)) + edgepairs_((5,_6),_(35,_36))
 - nodepairs_(5,_35) - nodepairs_(6,_35) <= 0
_C5087: edgepairs_((6,_7),_(34,_35)) + edgepairs_((6,_7),_(35,_36))
 - nodepairs_(6,_35) - nodepairs_(7,_35) <= 0
_C5088: edgepairs_((7,_8),_(34,_35)) + edgepairs_((7,_8),_(35,_36))
 - nodepairs_(7,_35) - nodepairs_(8,_35) <= 0
_C5089: edgepairs_((8,_9),_(34,_35)) + edgepairs_((8,_9),_(35,_36))
 - nodepairs_(8,_35) - nodepairs_(9,_35) <= 0
_C509: - nodepairs_(5,_19) <= 0
_C5090: edgepairs_((9,_10),_(34,_35)) + edgepairs_((9,_10),_(35,_36))
 - nodepairs_(10,_35) - nodepairs_(9,_35) <= 0
_C5091: edgepairs_((10,_11),_(34,_35)) + edgepairs_((10,_11),_(35,_36))
 - nodepairs_(10,_35) - nodepairs_(11,_35) <= 0
_C5092: edgepairs_((11,_12),_(34,_35)) + edgepairs_((11,_12),_(35,_36))
 - nodepairs_(11,_35) - nodepairs_(12,_35) <= 0
_C5093: edgepairs_((12,_13),_(34,_35)) + edgepairs_((12,_13),_(35,_36))
 - nodepairs_(12,_35) - nodepairs_(13,_35) <= 0
_C5094: edgepairs_((13,_14),_(34,_35)) + edgepairs_((13,_14),_(35,_36))
 - nodepairs_(13,_35) - nodepairs_(14,_35) <= 0
_C5095: edgepairs_((14,_15),_(34,_35)) + edgepairs_((14,_15),_(35,_36))
 - nodepairs_(14,_35) - nodepairs_(15,_35) <= 0
_C5096: edgepairs_((15,_16),_(34,_35)) + edgepairs_((15,_16),_(35,_36))
 - nodepairs_(15,_35) - nodepairs_(16,_35) <= 0
_C5097: edgepairs_((16,_17),_(34,_35)) + edgepairs_((16,_17),_(35,_36))
 - nodepairs_(16,_35) - nodepairs_(17,_35) <= 0
_C5098: edgepairs_((17,_18),_(34,_35)) + edgepairs_((17,_18),_(35,_36))
 - nodepairs_(17,_35) - nodepairs_(18,_35) <= 0
_C5099: edgepairs_((18,_19),_(34,_35)) + edgepairs_((18,_19),_(35,_36))
 - nodepairs_(18,_35) - nodepairs_(19,_35) <= 0
_C51: nodepairs_(50,_0) + nodepairs_(50,_1) + nodepairs_(50,_10)
 + nodepairs_(50,_11) + nodepairs_(50,_12) + nodepairs_(50,_13)
 + nodepairs_(50,_14) + nodepairs_(50,_15) + nodepairs_(50,_16)
 + nodepairs_(50,_17) + nodepairs_(50,_19) + nodepairs_(50,_21)
 + nodepairs_(50,_22) + nodepairs_(50,_23) + nodepairs_(50,_24)
 + nodepairs_(50,_25) + nodepairs_(50,_26) + nodepairs_(50,_27)
 + nodepairs_(50,_28) + nodepairs_(50,_29) + nodepairs_(50,_3)
 + nodepairs_(50,_30) + nodepairs_(50,_31) + nodepairs_(50,_32)
 + nodepairs_(50,_33) + nodepairs_(50,_34) + nodepairs_(50,_35)
 + nodepairs_(50,_36) + nodepairs_(50,_37) + nodepairs_(50,_38)
 + nodepairs_(50,_39) + nodepairs_(50,_40) + nodepairs_(50,_42)
 + nodepairs_(50,_44) + nodepairs_(50,_45) + nodepairs_(50,_46)
 + nodepairs_(50,_47) + nodepairs_(50,_48) + nodepairs_(50,_49)
 + nodepairs_(50,_5) + nodepairs_(50,_50) + nodepairs_(50,_51)
 + nodepairs_(50,_52) + nodepairs_(50,_53) + nodepairs_(50,_54)
 + nodepairs_(50,_6) + nodepairs_(50,_7) + nodepairs_(50,_8)
 + nodepairs_(50,_9) <= 1
_C510: edgepairs_((3,_5),_(19,_21)) + edgepairs_((5,_6),_(19,_21))
 - nodepairs_(5,_19) - nodepairs_(5,_21) <= 0
_C5100: edgepairs_((19,_20),_(34,_35)) + edgepairs_((19,_20),_(35,_36))
 - nodepairs_(19,_35) - nodepairs_(20,_35) <= 0
_C5101: edgepairs_((20,_21),_(34,_35)) + edgepairs_((20,_21),_(35,_36))
 - nodepairs_(20,_35) - nodepairs_(21,_35) <= 0
_C5102: edgepairs_((21,_22),_(34,_35)) + edgepairs_((21,_22),_(35,_36))
 - nodepairs_(21,_35) - nodepairs_(22,_35) <= 0
_C5103: edgepairs_((22,_23),_(34,_35)) + edgepairs_((22,_23),_(35,_36))
 - nodepairs_(22,_35) - nodepairs_(23,_35) <= 0
_C5104: edgepairs_((23,_24),_(34,_35)) + edgepairs_((23,_24),_(35,_36))
 - nodepairs_(23,_35) - nodepairs_(24,_35) <= 0
_C5105: edgepairs_((23,_25),_(34,_35)) + edgepairs_((23,_25),_(35,_36))
 - nodepairs_(23,_35) - nodepairs_(25,_35) <= 0
_C5106: - nodepairs_(26,_35) <= 0
_C5107: - nodepairs_(28,_35) <= 0
_C5108: - nodepairs_(28,_35) <= 0
_C5109: edgepairs_((28,_30),_(34,_35)) + edgepairs_((28,_30),_(35,_36))
 - nodepairs_(28,_35) - nodepairs_(30,_35) <= 0
_C511: edgepairs_((3,_5),_(21,_22)) + edgepairs_((5,_6),_(21,_22))
 - nodepairs_(5,_21) - nodepairs_(5,_22) <= 0
_C5110: edgepairs_((30,_31),_(34,_35)) + edgepairs_((30,_31),_(35,_36))
 - nodepairs_(30,_35) - nodepairs_(31,_35) <= 0
_C5111: edgepairs_((31,_32),_(34,_35)) + edgepairs_((31,_32),_(35,_36))
 - nodepairs_(31,_35) - nodepairs_(32,_35) <= 0
_C5112: edgepairs_((32,_33),_(34,_35)) + edgepairs_((32,_33),_(35,_36))
 - nodepairs_(32,_35) - nodepairs_(33,_35) <= 0
_C5113: edgepairs_((33,_34),_(34,_35)) + edgepairs_((33,_34),_(35,_36))
 - nodepairs_(33,_35) - nodepairs_(34,_35) <= 0
_C5114: edgepairs_((34,_35),_(34,_35)) + edgepairs_((34,_35),_(35,_36))
 - nodepairs_(34,_35) - nodepairs_(35,_35) <= 0
_C5115: edgepairs_((35,_36),_(34,_35)) + edgepairs_((35,_36),_(35,_36))
 - nodepairs_(35,_35) - nodepairs_(36,_35) <= 0
_C5116: edgepairs_((36,_37),_(34,_35)) + edgepairs_((36,_37),_(35,_36))
 - nodepairs_(36,_35) - nodepairs_(37,_35) <= 0
_C5117: edgepairs_((37,_38),_(34,_35)) + edgepairs_((37,_38),_(35,_36))
 - nodepairs_(37,_35) - nodepairs_(38,_35) <= 0
_C5118: edgepairs_((38,_39),_(34,_35)) + edgepairs_((38,_39),_(35,_36))
 - nodepairs_(38,_35) - nodepairs_(39,_35) <= 0
_C5119: edgepairs_((39,_40),_(34,_35)) + edgepairs_((39,_40),_(35,_36))
 - nodepairs_(39,_35) - nodepairs_(40,_35) <= 0
_C512: edgepairs_((3,_5),_(22,_23)) + edgepairs_((5,_6),_(22,_23))
 - nodepairs_(5,_22) - nodepairs_(5,_23) <= 0
_C5120: edgepairs_((40,_41),_(34,_35)) + edgepairs_((40,_41),_(35,_36))
 - nodepairs_(40,_35) - nodepairs_(41,_35) <= 0
_C5121: edgepairs_((40,_42),_(34,_35)) + edgepairs_((40,_42),_(35,_36))
 - nodepairs_(40,_35) - nodepairs_(42,_35) <= 0
_C5122: - nodepairs_(44,_35) <= 0
_C5123: - nodepairs_(44,_35) <= 0
_C5124: edgepairs_((44,_46),_(34,_35)) + edgepairs_((44,_46),_(35,_36))
 - nodepairs_(44,_35) - nodepairs_(46,_35) <= 0
_C5125: edgepairs_((46,_47),_(34,_35)) + edgepairs_((46,_47),_(35,_36))
 - nodepairs_(46,_35) - nodepairs_(47,_35) <= 0
_C5126: edgepairs_((47,_48),_(34,_35)) + edgepairs_((47,_48),_(35,_36))
 - nodepairs_(47,_35) - nodepairs_(48,_35) <= 0
_C5127: edgepairs_((48,_49),_(34,_35)) + edgepairs_((48,_49),_(35,_36))
 - nodepairs_(48,_35) - nodepairs_(49,_35) <= 0
_C5128: edgepairs_((49,_50),_(34,_35)) + edgepairs_((49,_50),_(35,_36))
 - nodepairs_(49,_35) - nodepairs_(50,_35) <= 0
_C5129: edgepairs_((50,_51),_(34,_35)) + edgepairs_((50,_51),_(35,_36))
 - nodepairs_(50,_35) - nodepairs_(51,_35) <= 0
_C513: edgepairs_((3,_5),_(23,_24)) + edgepairs_((5,_6),_(23,_24))
 - nodepairs_(5,_23) - nodepairs_(5,_24) <= 0
_C5130: edgepairs_((51,_52),_(34,_35)) + edgepairs_((51,_52),_(35,_36))
 - nodepairs_(51,_35) - nodepairs_(52,_35) <= 0
_C5131: edgepairs_((52,_53),_(34,_35)) + edgepairs_((52,_53),_(35,_36))
 - nodepairs_(52,_35) - nodepairs_(53,_35) <= 0
_C5132: edgepairs_((53,_54),_(34,_35)) + edgepairs_((53,_54),_(35,_36))
 - nodepairs_(53,_35) - nodepairs_(54,_35) <= 0
_C5133: edgepairs_((0,_1),_(35,_36)) + edgepairs_((0,_1),_(36,_37))
 - nodepairs_(0,_36) - nodepairs_(1,_36) <= 0
_C5134: edgepairs_((0,_26),_(35,_36)) + edgepairs_((0,_26),_(36,_37))
 - nodepairs_(0,_36) - nodepairs_(26,_36) <= 0
_C5135: - nodepairs_(0,_36) <= 0
_C5136: - nodepairs_(1,_36) <= 0
_C5137: - nodepairs_(3,_36) <= 0
_C5138: - nodepairs_(3,_36) <= 0
_C5139: edgepairs_((3,_5),_(35,_36)) + edgepairs_((3,_5),_(36,_37))
 - nodepairs_(3,_36) - nodepairs_(5,_36) <= 0
_C514: edgepairs_((3,_5),_(24,_25)) + edgepairs_((5,_6),_(24,_25))
 - nodepairs_(5,_24) - nodepairs_(5,_25) <= 0
_C5140: edgepairs_((5,_6),_(35,_36)) + edgepairs_((5,_6),_(36,_37))
 - nodepairs_(5,_36) - nodepairs_(6,_36) <= 0
_C5141: edgepairs_((6,_7),_(35,_36)) + edgepairs_((6,_7),_(36,_37))
 - nodepairs_(6,_36) - nodepairs_(7,_36) <= 0
_C5142: edgepairs_((7,_8),_(35,_36)) + edgepairs_((7,_8),_(36,_37))
 - nodepairs_(7,_36) - nodepairs_(8,_36) <= 0
_C5143: edgepairs_((8,_9),_(35,_36)) + edgepairs_((8,_9),_(36,_37))
 - nodepairs_(8,_36) - nodepairs_(9,_36) <= 0
_C5144: edgepairs_((9,_10),_(35,_36)) + edgepairs_((9,_10),_(36,_37))
 - nodepairs_(10,_36) - nodepairs_(9,_36) <= 0
_C5145: edgepairs_((10,_11),_(35,_36)) + edgepairs_((10,_11),_(36,_37))
 - nodepairs_(10,_36) - nodepairs_(11,_36) <= 0
_C5146: edgepairs_((11,_12),_(35,_36)) + edgepairs_((11,_12),_(36,_37))
 - nodepairs_(11,_36) - nodepairs_(12,_36) <= 0
_C5147: edgepairs_((12,_13),_(35,_36)) + edgepairs_((12,_13),_(36,_37))
 - nodepairs_(12,_36) - nodepairs_(13,_36) <= 0
_C5148: edgepairs_((13,_14),_(35,_36)) + edgepairs_((13,_14),_(36,_37))
 - nodepairs_(13,_36) - nodepairs_(14,_36) <= 0
_C5149: edgepairs_((14,_15),_(35,_36)) + edgepairs_((14,_15),_(36,_37))
 - nodepairs_(14,_36) - nodepairs_(15,_36) <= 0
_C515: edgepairs_((3,_5),_(25,_26)) + edgepairs_((5,_6),_(25,_26))
 - nodepairs_(5,_25) - nodepairs_(5,_26) <= 0
_C5150: edgepairs_((15,_16),_(35,_36)) + edgepairs_((15,_16),_(36,_37))
 - nodepairs_(15,_36) - nodepairs_(16,_36) <= 0
_C5151: edgepairs_((16,_17),_(35,_36)) + edgepairs_((16,_17),_(36,_37))
 - nodepairs_(16,_36) - nodepairs_(17,_36) <= 0
_C5152: edgepairs_((17,_18),_(35,_36)) + edgepairs_((17,_18),_(36,_37))
 - nodepairs_(17,_36) - nodepairs_(18,_36) <= 0
_C5153: edgepairs_((18,_19),_(35,_36)) + edgepairs_((18,_19),_(36,_37))
 - nodepairs_(18,_36) - nodepairs_(19,_36) <= 0
_C5154: edgepairs_((19,_20),_(35,_36)) + edgepairs_((19,_20),_(36,_37))
 - nodepairs_(19,_36) - nodepairs_(20,_36) <= 0
_C5155: edgepairs_((20,_21),_(35,_36)) + edgepairs_((20,_21),_(36,_37))
 - nodepairs_(20,_36) - nodepairs_(21,_36) <= 0
_C5156: edgepairs_((21,_22),_(35,_36)) + edgepairs_((21,_22),_(36,_37))
 - nodepairs_(21,_36) - nodepairs_(22,_36) <= 0
_C5157: edgepairs_((22,_23),_(35,_36)) + edgepairs_((22,_23),_(36,_37))
 - nodepairs_(22,_36) - nodepairs_(23,_36) <= 0
_C5158: edgepairs_((23,_24),_(35,_36)) + edgepairs_((23,_24),_(36,_37))
 - nodepairs_(23,_36) - nodepairs_(24,_36) <= 0
_C5159: edgepairs_((23,_25),_(35,_36)) + edgepairs_((23,_25),_(36,_37))
 - nodepairs_(23,_36) - nodepairs_(25,_36) <= 0
_C516: edgepairs_((3,_5),_(26,_27)) + edgepairs_((5,_6),_(26,_27))
 - nodepairs_(5,_26) - nodepairs_(5,_27) <= 0
_C5160: - nodepairs_(26,_36) <= 0
_C5161: - nodepairs_(28,_36) <= 0
_C5162: - nodepairs_(28,_36) <= 0
_C5163: edgepairs_((28,_30),_(35,_36)) + edgepairs_((28,_30),_(36,_37))
 - nodepairs_(28,_36) - nodepairs_(30,_36) <= 0
_C5164: edgepairs_((30,_31),_(35,_36)) + edgepairs_((30,_31),_(36,_37))
 - nodepairs_(30,_36) - nodepairs_(31,_36) <= 0
_C5165: edgepairs_((31,_32),_(35,_36)) + edgepairs_((31,_32),_(36,_37))
 - nodepairs_(31,_36) - nodepairs_(32,_36) <= 0
_C5166: edgepairs_((32,_33),_(35,_36)) + edgepairs_((32,_33),_(36,_37))
 - nodepairs_(32,_36) - nodepairs_(33,_36) <= 0
_C5167: edgepairs_((33,_34),_(35,_36)) + edgepairs_((33,_34),_(36,_37))
 - nodepairs_(33,_36) - nodepairs_(34,_36) <= 0
_C5168: edgepairs_((34,_35),_(35,_36)) + edgepairs_((34,_35),_(36,_37))
 - nodepairs_(34,_36) - nodepairs_(35,_36) <= 0
_C5169: edgepairs_((35,_36),_(35,_36)) + edgepairs_((35,_36),_(36,_37))
 - nodepairs_(35,_36) - nodepairs_(36,_36) <= 0
_C517: edgepairs_((3,_5),_(27,_28)) + edgepairs_((5,_6),_(27,_28))
 - nodepairs_(5,_27) - nodepairs_(5,_28) <= 0
_C5170: edgepairs_((36,_37),_(35,_36)) + edgepairs_((36,_37),_(36,_37))
 - nodepairs_(36,_36) - nodepairs_(37,_36) <= 0
_C5171: edgepairs_((37,_38),_(35,_36)) + edgepairs_((37,_38),_(36,_37))
 - nodepairs_(37,_36) - nodepairs_(38,_36) <= 0
_C5172: edgepairs_((38,_39),_(35,_36)) + edgepairs_((38,_39),_(36,_37))
 - nodepairs_(38,_36) - nodepairs_(39,_36) <= 0
_C5173: edgepairs_((39,_40),_(35,_36)) + edgepairs_((39,_40),_(36,_37))
 - nodepairs_(39,_36) - nodepairs_(40,_36) <= 0
_C5174: edgepairs_((40,_41),_(35,_36)) + edgepairs_((40,_41),_(36,_37))
 - nodepairs_(40,_36) - nodepairs_(41,_36) <= 0
_C5175: edgepairs_((40,_42),_(35,_36)) + edgepairs_((40,_42),_(36,_37))
 - nodepairs_(40,_36) - nodepairs_(42,_36) <= 0
_C5176: - nodepairs_(44,_36) <= 0
_C5177: - nodepairs_(44,_36) <= 0
_C5178: edgepairs_((44,_46),_(35,_36)) + edgepairs_((44,_46),_(36,_37))
 - nodepairs_(44,_36) - nodepairs_(46,_36) <= 0
_C5179: edgepairs_((46,_47),_(35,_36)) + edgepairs_((46,_47),_(36,_37))
 - nodepairs_(46,_36) - nodepairs_(47,_36) <= 0
_C518: edgepairs_((3,_5),_(28,_29)) + edgepairs_((5,_6),_(28,_29))
 - nodepairs_(5,_28) - nodepairs_(5,_29) <= 0
_C5180: edgepairs_((47,_48),_(35,_36)) + edgepairs_((47,_48),_(36,_37))
 - nodepairs_(47,_36) - nodepairs_(48,_36) <= 0
_C5181: edgepairs_((48,_49),_(35,_36)) + edgepairs_((48,_49),_(36,_37))
 - nodepairs_(48,_36) - nodepairs_(49,_36) <= 0
_C5182: edgepairs_((49,_50),_(35,_36)) + edgepairs_((49,_50),_(36,_37))
 - nodepairs_(49,_36) - nodepairs_(50,_36) <= 0
_C5183: edgepairs_((50,_51),_(35,_36)) + edgepairs_((50,_51),_(36,_37))
 - nodepairs_(50,_36) - nodepairs_(51,_36) <= 0
_C5184: edgepairs_((51,_52),_(35,_36)) + edgepairs_((51,_52),_(36,_37))
 - nodepairs_(51,_36) - nodepairs_(52,_36) <= 0
_C5185: edgepairs_((52,_53),_(35,_36)) + edgepairs_((52,_53),_(36,_37))
 - nodepairs_(52,_36) - nodepairs_(53,_36) <= 0
_C5186: edgepairs_((53,_54),_(35,_36)) + edgepairs_((53,_54),_(36,_37))
 - nodepairs_(53,_36) - nodepairs_(54,_36) <= 0
_C5187: edgepairs_((0,_1),_(36,_37)) + edgepairs_((0,_1),_(37,_38))
 + edgepairs_((0,_1),_(37,_39)) - nodepairs_(0,_37) - nodepairs_(1,_37) <= 0
_C5188: edgepairs_((0,_26),_(36,_37)) + edgepairs_((0,_26),_(37,_38))
 + edgepairs_((0,_26),_(37,_39)) - nodepairs_(0,_37) - nodepairs_(26,_37) <= 0
_C5189: - nodepairs_(0,_37) <= 0
_C519: edgepairs_((3,_5),_(29,_30)) + edgepairs_((5,_6),_(29,_30))
 - nodepairs_(5,_29) - nodepairs_(5,_30) <= 0
_C5190: - nodepairs_(1,_37) <= 0
_C5191: - nodepairs_(3,_37) <= 0
_C5192: - nodepairs_(3,_37) <= 0
_C5193: edgepairs_((3,_5),_(36,_37)) + edgepairs_((3,_5),_(37,_38))
 + edgepairs_((3,_5),_(37,_39)) - nodepairs_(3,_37) - nodepairs_(5,_37) <= 0
_C5194: edgepairs_((5,_6),_(36,_37)) + edgepairs_((5,_6),_(37,_38))
 + edgepairs_((5,_6),_(37,_39)) - nodepairs_(5,_37) - nodepairs_(6,_37) <= 0
_C5195: edgepairs_((6,_7),_(36,_37)) + edgepairs_((6,_7),_(37,_38))
 + edgepairs_((6,_7),_(37,_39)) - nodepairs_(6,_37) - nodepairs_(7,_37) <= 0
_C5196: edgepairs_((7,_8),_(36,_37)) + edgepairs_((7,_8),_(37,_38))
 + edgepairs_((7,_8),_(37,_39)) - nodepairs_(7,_37) - nodepairs_(8,_37) <= 0
_C5197: edgepairs_((8,_9),_(36,_37)) + edgepairs_((8,_9),_(37,_38))
 + edgepairs_((8,_9),_(37,_39)) - nodepairs_(8,_37) - nodepairs_(9,_37) <= 0
_C5198: edgepairs_((9,_10),_(36,_37)) + edgepairs_((9,_10),_(37,_38))
 + edgepairs_((9,_10),_(37,_39)) - nodepairs_(10,_37) - nodepairs_(9,_37) <= 0
_C5199: edgepairs_((10,_11),_(36,_37)) + edgepairs_((10,_11),_(37,_38))
 + edgepairs_((10,_11),_(37,_39)) - nodepairs_(10,_37) - nodepairs_(11,_37)
 <= 0
_C52: nodepairs_(51,_0) + nodepairs_(51,_1) + nodepairs_(51,_10)
 + nodepairs_(51,_11) + nodepairs_(51,_12) + nodepairs_(51,_13)
 + nodepairs_(51,_14) + nodepairs_(51,_15) + nodepairs_(51,_16)
 + nodepairs_(51,_17) + nodepairs_(51,_19) + nodepairs_(51,_21)
 + nodepairs_(51,_22) + nodepairs_(51,_23) + nodepairs_(51,_24)
 + nodepairs_(51,_25) + nodepairs_(51,_26) + nodepairs_(51,_27)
 + nodepairs_(51,_28) + nodepairs_(51,_29) + nodepairs_(51,_3)
 + nodepairs_(51,_30) + nodepairs_(51,_31) + nodepairs_(51,_32)
 + nodepairs_(51,_33) + nodepairs_(51,_34) + nodepairs_(51,_35)
 + nodepairs_(51,_36) + nodepairs_(51,_37) + nodepairs_(51,_38)
 + nodepairs_(51,_39) + nodepairs_(51,_40) + nodepairs_(51,_42)
 + nodepairs_(51,_44) + nodepairs_(51,_45) + nodepairs_(51,_46)
 + nodepairs_(51,_47) + nodepairs_(51,_48) + nodepairs_(51,_49)
 + nodepairs_(51,_5) + nodepairs_(51,_50) + nodepairs_(51,_51)
 + nodepairs_(51,_52) + nodepairs_(51,_53) + nodepairs_(51,_54)
 + nodepairs_(51,_6) + nodepairs_(51,_7) + nodepairs_(51,_8)
 + nodepairs_(51,_9) <= 1
_C520: edgepairs_((3,_5),_(30,_31)) + edgepairs_((5,_6),_(30,_31))
 - nodepairs_(5,_30) - nodepairs_(5,_31) <= 0
_C5200: edgepairs_((11,_12),_(36,_37)) + edgepairs_((11,_12),_(37,_38))
 + edgepairs_((11,_12),_(37,_39)) - nodepairs_(11,_37) - nodepairs_(12,_37)
 <= 0
_C5201: edgepairs_((12,_13),_(36,_37)) + edgepairs_((12,_13),_(37,_38))
 + edgepairs_((12,_13),_(37,_39)) - nodepairs_(12,_37) - nodepairs_(13,_37)
 <= 0
_C5202: edgepairs_((13,_14),_(36,_37)) + edgepairs_((13,_14),_(37,_38))
 + edgepairs_((13,_14),_(37,_39)) - nodepairs_(13,_37) - nodepairs_(14,_37)
 <= 0
_C5203: edgepairs_((14,_15),_(36,_37)) + edgepairs_((14,_15),_(37,_38))
 + edgepairs_((14,_15),_(37,_39)) - nodepairs_(14,_37) - nodepairs_(15,_37)
 <= 0
_C5204: edgepairs_((15,_16),_(36,_37)) + edgepairs_((15,_16),_(37,_38))
 + edgepairs_((15,_16),_(37,_39)) - nodepairs_(15,_37) - nodepairs_(16,_37)
 <= 0
_C5205: edgepairs_((16,_17),_(36,_37)) + edgepairs_((16,_17),_(37,_38))
 + edgepairs_((16,_17),_(37,_39)) - nodepairs_(16,_37) - nodepairs_(17,_37)
 <= 0
_C5206: edgepairs_((17,_18),_(36,_37)) + edgepairs_((17,_18),_(37,_38))
 + edgepairs_((17,_18),_(37,_39)) - nodepairs_(17,_37) - nodepairs_(18,_37)
 <= 0
_C5207: edgepairs_((18,_19),_(36,_37)) + edgepairs_((18,_19),_(37,_38))
 + edgepairs_((18,_19),_(37,_39)) - nodepairs_(18,_37) - nodepairs_(19,_37)
 <= 0
_C5208: edgepairs_((19,_20),_(36,_37)) + edgepairs_((19,_20),_(37,_38))
 + edgepairs_((19,_20),_(37,_39)) - nodepairs_(19,_37) - nodepairs_(20,_37)
 <= 0
_C5209: edgepairs_((20,_21),_(36,_37)) + edgepairs_((20,_21),_(37,_38))
 + edgepairs_((20,_21),_(37,_39)) - nodepairs_(20,_37) - nodepairs_(21,_37)
 <= 0
_C521: edgepairs_((3,_5),_(31,_32)) + edgepairs_((5,_6),_(31,_32))
 - nodepairs_(5,_31) - nodepairs_(5,_32) <= 0
_C5210: edgepairs_((21,_22),_(36,_37)) + edgepairs_((21,_22),_(37,_38))
 + edgepairs_((21,_22),_(37,_39)) - nodepairs_(21,_37) - nodepairs_(22,_37)
 <= 0
_C5211: edgepairs_((22,_23),_(36,_37)) + edgepairs_((22,_23),_(37,_38))
 + edgepairs_((22,_23),_(37,_39)) - nodepairs_(22,_37) - nodepairs_(23,_37)
 <= 0
_C5212: edgepairs_((23,_24),_(36,_37)) + edgepairs_((23,_24),_(37,_38))
 + edgepairs_((23,_24),_(37,_39)) - nodepairs_(23,_37) - nodepairs_(24,_37)
 <= 0
_C5213: edgepairs_((23,_25),_(36,_37)) + edgepairs_((23,_25),_(37,_38))
 + edgepairs_((23,_25),_(37,_39)) - nodepairs_(23,_37) - nodepairs_(25,_37)
 <= 0
_C5214: - nodepairs_(26,_37) <= 0
_C5215: - nodepairs_(28,_37) <= 0
_C5216: - nodepairs_(28,_37) <= 0
_C5217: edgepairs_((28,_30),_(36,_37)) + edgepairs_((28,_30),_(37,_38))
 + edgepairs_((28,_30),_(37,_39)) - nodepairs_(28,_37) - nodepairs_(30,_37)
 <= 0
_C5218: edgepairs_((30,_31),_(36,_37)) + edgepairs_((30,_31),_(37,_38))
 + edgepairs_((30,_31),_(37,_39)) - nodepairs_(30,_37) - nodepairs_(31,_37)
 <= 0
_C5219: edgepairs_((31,_32),_(36,_37)) + edgepairs_((31,_32),_(37,_38))
 + edgepairs_((31,_32),_(37,_39)) - nodepairs_(31,_37) - nodepairs_(32,_37)
 <= 0
_C522: edgepairs_((3,_5),_(32,_33)) + edgepairs_((5,_6),_(32,_33))
 - nodepairs_(5,_32) - nodepairs_(5,_33) <= 0
_C5220: edgepairs_((32,_33),_(36,_37)) + edgepairs_((32,_33),_(37,_38))
 + edgepairs_((32,_33),_(37,_39)) - nodepairs_(32,_37) - nodepairs_(33,_37)
 <= 0
_C5221: edgepairs_((33,_34),_(36,_37)) + edgepairs_((33,_34),_(37,_38))
 + edgepairs_((33,_34),_(37,_39)) - nodepairs_(33,_37) - nodepairs_(34,_37)
 <= 0
_C5222: edgepairs_((34,_35),_(36,_37)) + edgepairs_((34,_35),_(37,_38))
 + edgepairs_((34,_35),_(37,_39)) - nodepairs_(34,_37) - nodepairs_(35,_37)
 <= 0
_C5223: edgepairs_((35,_36),_(36,_37)) + edgepairs_((35,_36),_(37,_38))
 + edgepairs_((35,_36),_(37,_39)) - nodepairs_(35,_37) - nodepairs_(36,_37)
 <= 0
_C5224: edgepairs_((36,_37),_(36,_37)) + edgepairs_((36,_37),_(37,_38))
 + edgepairs_((36,_37),_(37,_39)) - nodepairs_(36,_37) - nodepairs_(37,_37)
 <= 0
_C5225: edgepairs_((37,_38),_(36,_37)) + edgepairs_((37,_38),_(37,_38))
 + edgepairs_((37,_38),_(37,_39)) - nodepairs_(37,_37) - nodepairs_(38,_37)
 <= 0
_C5226: edgepairs_((38,_39),_(36,_37)) + edgepairs_((38,_39),_(37,_38))
 + edgepairs_((38,_39),_(37,_39)) - nodepairs_(38,_37) - nodepairs_(39,_37)
 <= 0
_C5227: edgepairs_((39,_40),_(36,_37)) + edgepairs_((39,_40),_(37,_38))
 + edgepairs_((39,_40),_(37,_39)) - nodepairs_(39,_37) - nodepairs_(40,_37)
 <= 0
_C5228: edgepairs_((40,_41),_(36,_37)) + edgepairs_((40,_41),_(37,_38))
 + edgepairs_((40,_41),_(37,_39)) - nodepairs_(40,_37) - nodepairs_(41,_37)
 <= 0
_C5229: edgepairs_((40,_42),_(36,_37)) + edgepairs_((40,_42),_(37,_38))
 + edgepairs_((40,_42),_(37,_39)) - nodepairs_(40,_37) - nodepairs_(42,_37)
 <= 0
_C523: edgepairs_((3,_5),_(33,_34)) + edgepairs_((5,_6),_(33,_34))
 - nodepairs_(5,_33) - nodepairs_(5,_34) <= 0
_C5230: - nodepairs_(44,_37) <= 0
_C5231: - nodepairs_(44,_37) <= 0
_C5232: edgepairs_((44,_46),_(36,_37)) + edgepairs_((44,_46),_(37,_38))
 + edgepairs_((44,_46),_(37,_39)) - nodepairs_(44,_37) - nodepairs_(46,_37)
 <= 0
_C5233: edgepairs_((46,_47),_(36,_37)) + edgepairs_((46,_47),_(37,_38))
 + edgepairs_((46,_47),_(37,_39)) - nodepairs_(46,_37) - nodepairs_(47,_37)
 <= 0
_C5234: edgepairs_((47,_48),_(36,_37)) + edgepairs_((47,_48),_(37,_38))
 + edgepairs_((47,_48),_(37,_39)) - nodepairs_(47,_37) - nodepairs_(48,_37)
 <= 0
_C5235: edgepairs_((48,_49),_(36,_37)) + edgepairs_((48,_49),_(37,_38))
 + edgepairs_((48,_49),_(37,_39)) - nodepairs_(48,_37) - nodepairs_(49,_37)
 <= 0
_C5236: edgepairs_((49,_50),_(36,_37)) + edgepairs_((49,_50),_(37,_38))
 + edgepairs_((49,_50),_(37,_39)) - nodepairs_(49,_37) - nodepairs_(50,_37)
 <= 0
_C5237: edgepairs_((50,_51),_(36,_37)) + edgepairs_((50,_51),_(37,_38))
 + edgepairs_((50,_51),_(37,_39)) - nodepairs_(50,_37) - nodepairs_(51,_37)
 <= 0
_C5238: edgepairs_((51,_52),_(36,_37)) + edgepairs_((51,_52),_(37,_38))
 + edgepairs_((51,_52),_(37,_39)) - nodepairs_(51,_37) - nodepairs_(52,_37)
 <= 0
_C5239: edgepairs_((52,_53),_(36,_37)) + edgepairs_((52,_53),_(37,_38))
 + edgepairs_((52,_53),_(37,_39)) - nodepairs_(52,_37) - nodepairs_(53,_37)
 <= 0
_C524: edgepairs_((3,_5),_(34,_35)) + edgepairs_((5,_6),_(34,_35))
 - nodepairs_(5,_34) - nodepairs_(5,_35) <= 0
_C5240: edgepairs_((53,_54),_(36,_37)) + edgepairs_((53,_54),_(37,_38))
 + edgepairs_((53,_54),_(37,_39)) - nodepairs_(53,_37) - nodepairs_(54,_37)
 <= 0
_C5241: edgepairs_((0,_1),_(37,_38)) - nodepairs_(0,_38) - nodepairs_(1,_38)
 <= 0
_C5242: edgepairs_((0,_26),_(37,_38)) - nodepairs_(0,_38) - nodepairs_(26,_38)
 <= 0
_C5243: - nodepairs_(0,_38) <= 0
_C5244: - nodepairs_(1,_38) <= 0
_C5245: - nodepairs_(3,_38) <= 0
_C5246: - nodepairs_(3,_38) <= 0
_C5247: edgepairs_((3,_5),_(37,_38)) - nodepairs_(3,_38) - nodepairs_(5,_38)
 <= 0
_C5248: edgepairs_((5,_6),_(37,_38)) - nodepairs_(5,_38) - nodepairs_(6,_38)
 <= 0
_C5249: edgepairs_((6,_7),_(37,_38)) - nodepairs_(6,_38) - nodepairs_(7,_38)
 <= 0
_C525: edgepairs_((3,_5),_(35,_36)) + edgepairs_((5,_6),_(35,_36))
 - nodepairs_(5,_35) - nodepairs_(5,_36) <= 0
_C5250: edgepairs_((7,_8),_(37,_38)) - nodepairs_(7,_38) - nodepairs_(8,_38)
 <= 0
_C5251: edgepairs_((8,_9),_(37,_38)) - nodepairs_(8,_38) - nodepairs_(9,_38)
 <= 0
_C5252: edgepairs_((9,_10),_(37,_38)) - nodepairs_(10,_38) - nodepairs_(9,_38)
 <= 0
_C5253: edgepairs_((10,_11),_(37,_38)) - nodepairs_(10,_38)
 - nodepairs_(11,_38) <= 0
_C5254: edgepairs_((11,_12),_(37,_38)) - nodepairs_(11,_38)
 - nodepairs_(12,_38) <= 0
_C5255: edgepairs_((12,_13),_(37,_38)) - nodepairs_(12,_38)
 - nodepairs_(13,_38) <= 0
_C5256: edgepairs_((13,_14),_(37,_38)) - nodepairs_(13,_38)
 - nodepairs_(14,_38) <= 0
_C5257: edgepairs_((14,_15),_(37,_38)) - nodepairs_(14,_38)
 - nodepairs_(15,_38) <= 0
_C5258: edgepairs_((15,_16),_(37,_38)) - nodepairs_(15,_38)
 - nodepairs_(16,_38) <= 0
_C5259: edgepairs_((16,_17),_(37,_38)) - nodepairs_(16,_38)
 - nodepairs_(17,_38) <= 0
_C526: edgepairs_((3,_5),_(36,_37)) + edgepairs_((5,_6),_(36,_37))
 - nodepairs_(5,_36) - nodepairs_(5,_37) <= 0
_C5260: edgepairs_((17,_18),_(37,_38)) - nodepairs_(17,_38)
 - nodepairs_(18,_38) <= 0
_C5261: edgepairs_((18,_19),_(37,_38)) - nodepairs_(18,_38)
 - nodepairs_(19,_38) <= 0
_C5262: edgepairs_((19,_20),_(37,_38)) - nodepairs_(19,_38)
 - nodepairs_(20,_38) <= 0
_C5263: edgepairs_((20,_21),_(37,_38)) - nodepairs_(20,_38)
 - nodepairs_(21,_38) <= 0
_C5264: edgepairs_((21,_22),_(37,_38)) - nodepairs_(21,_38)
 - nodepairs_(22,_38) <= 0
_C5265: edgepairs_((22,_23),_(37,_38)) - nodepairs_(22,_38)
 - nodepairs_(23,_38) <= 0
_C5266: edgepairs_((23,_24),_(37,_38)) - nodepairs_(23,_38)
 - nodepairs_(24,_38) <= 0
_C5267: edgepairs_((23,_25),_(37,_38)) - nodepairs_(23,_38)
 - nodepairs_(25,_38) <= 0
_C5268: - nodepairs_(26,_38) <= 0
_C5269: - nodepairs_(28,_38) <= 0
_C527: edgepairs_((3,_5),_(37,_38)) + edgepairs_((5,_6),_(37,_38))
 - nodepairs_(5,_37) - nodepairs_(5,_38) <= 0
_C5270: - nodepairs_(28,_38) <= 0
_C5271: edgepairs_((28,_30),_(37,_38)) - nodepairs_(28,_38)
 - nodepairs_(30,_38) <= 0
_C5272: edgepairs_((30,_31),_(37,_38)) - nodepairs_(30,_38)
 - nodepairs_(31,_38) <= 0
_C5273: edgepairs_((31,_32),_(37,_38)) - nodepairs_(31,_38)
 - nodepairs_(32,_38) <= 0
_C5274: edgepairs_((32,_33),_(37,_38)) - nodepairs_(32,_38)
 - nodepairs_(33,_38) <= 0
_C5275: edgepairs_((33,_34),_(37,_38)) - nodepairs_(33,_38)
 - nodepairs_(34,_38) <= 0
_C5276: edgepairs_((34,_35),_(37,_38)) - nodepairs_(34,_38)
 - nodepairs_(35,_38) <= 0
_C5277: edgepairs_((35,_36),_(37,_38)) - nodepairs_(35,_38)
 - nodepairs_(36,_38) <= 0
_C5278: edgepairs_((36,_37),_(37,_38)) - nodepairs_(36,_38)
 - nodepairs_(37,_38) <= 0
_C5279: edgepairs_((37,_38),_(37,_38)) - nodepairs_(37,_38)
 - nodepairs_(38,_38) <= 0
_C528: edgepairs_((3,_5),_(37,_39)) + edgepairs_((5,_6),_(37,_39))
 - nodepairs_(5,_37) - nodepairs_(5,_39) <= 0
_C5280: edgepairs_((38,_39),_(37,_38)) - nodepairs_(38,_38)
 - nodepairs_(39,_38) <= 0
_C5281: edgepairs_((39,_40),_(37,_38)) - nodepairs_(39,_38)
 - nodepairs_(40,_38) <= 0
_C5282: edgepairs_((40,_41),_(37,_38)) - nodepairs_(40,_38)
 - nodepairs_(41,_38) <= 0
_C5283: edgepairs_((40,_42),_(37,_38)) - nodepairs_(40,_38)
 - nodepairs_(42,_38) <= 0
_C5284: - nodepairs_(44,_38) <= 0
_C5285: - nodepairs_(44,_38) <= 0
_C5286: edgepairs_((44,_46),_(37,_38)) - nodepairs_(44,_38)
 - nodepairs_(46,_38) <= 0
_C5287: edgepairs_((46,_47),_(37,_38)) - nodepairs_(46,_38)
 - nodepairs_(47,_38) <= 0
_C5288: edgepairs_((47,_48),_(37,_38)) - nodepairs_(47,_38)
 - nodepairs_(48,_38) <= 0
_C5289: edgepairs_((48,_49),_(37,_38)) - nodepairs_(48,_38)
 - nodepairs_(49,_38) <= 0
_C529: edgepairs_((3,_5),_(39,_40)) + edgepairs_((5,_6),_(39,_40))
 - nodepairs_(5,_39) - nodepairs_(5,_40) <= 0
_C5290: edgepairs_((49,_50),_(37,_38)) - nodepairs_(49,_38)
 - nodepairs_(50,_38) <= 0
_C5291: edgepairs_((50,_51),_(37,_38)) - nodepairs_(50,_38)
 - nodepairs_(51,_38) <= 0
_C5292: edgepairs_((51,_52),_(37,_38)) - nodepairs_(51,_38)
 - nodepairs_(52,_38) <= 0
_C5293: edgepairs_((52,_53),_(37,_38)) - nodepairs_(52,_38)
 - nodepairs_(53,_38) <= 0
_C5294: edgepairs_((53,_54),_(37,_38)) - nodepairs_(53,_38)
 - nodepairs_(54,_38) <= 0
_C5295: edgepairs_((0,_1),_(37,_39)) + edgepairs_((0,_1),_(39,_40))
 - nodepairs_(0,_39) - nodepairs_(1,_39) <= 0
_C5296: edgepairs_((0,_26),_(37,_39)) + edgepairs_((0,_26),_(39,_40))
 - nodepairs_(0,_39) - nodepairs_(26,_39) <= 0
_C5297: - nodepairs_(0,_39) <= 0
_C5298: - nodepairs_(1,_39) <= 0
_C5299: - nodepairs_(3,_39) <= 0
_C53: nodepairs_(52,_0) + nodepairs_(52,_1) + nodepairs_(52,_10)
 + nodepairs_(52,_11) + nodepairs_(52,_12) + nodepairs_(52,_13)
 + nodepairs_(52,_14) + nodepairs_(52,_15) + nodepairs_(52,_16)
 + nodepairs_(52,_17) + nodepairs_(52,_19) + nodepairs_(52,_21)
 + nodepairs_(52,_22) + nodepairs_(52,_23) + nodepairs_(52,_24)
 + nodepairs_(52,_25) + nodepairs_(52,_26) + nodepairs_(52,_27)
 + nodepairs_(52,_28) + nodepairs_(52,_29) + nodepairs_(52,_3)
 + nodepairs_(52,_30) + nodepairs_(52,_31) + nodepairs_(52,_32)
 + nodepairs_(52,_33) + nodepairs_(52,_34) + nodepairs_(52,_35)
 + nodepairs_(52,_36) + nodepairs_(52,_37) + nodepairs_(52,_38)
 + nodepairs_(52,_39) + nodepairs_(52,_40) + nodepairs_(52,_42)
 + nodepairs_(52,_44) + nodepairs_(52,_45) + nodepairs_(52,_46)
 + nodepairs_(52,_47) + nodepairs_(52,_48) + nodepairs_(52,_49)
 + nodepairs_(52,_5) + nodepairs_(52,_50) + nodepairs_(52,_51)
 + nodepairs_(52,_52) + nodepairs_(52,_53) + nodepairs_(52,_54)
 + nodepairs_(52,_6) + nodepairs_(52,_7) + nodepairs_(52,_8)
 + nodepairs_(52,_9) <= 1
_C530: - nodepairs_(5,_42) <= 0
_C5300: - nodepairs_(3,_39) <= 0
_C5301: edgepairs_((3,_5),_(37,_39)) + edgepairs_((3,_5),_(39,_40))
 - nodepairs_(3,_39) - nodepairs_(5,_39) <= 0
_C5302: edgepairs_((5,_6),_(37,_39)) + edgepairs_((5,_6),_(39,_40))
 - nodepairs_(5,_39) - nodepairs_(6,_39) <= 0
_C5303: edgepairs_((6,_7),_(37,_39)) + edgepairs_((6,_7),_(39,_40))
 - nodepairs_(6,_39) - nodepairs_(7,_39) <= 0
_C5304: edgepairs_((7,_8),_(37,_39)) + edgepairs_((7,_8),_(39,_40))
 - nodepairs_(7,_39) - nodepairs_(8,_39) <= 0
_C5305: edgepairs_((8,_9),_(37,_39)) + edgepairs_((8,_9),_(39,_40))
 - nodepairs_(8,_39) - nodepairs_(9,_39) <= 0
_C5306: edgepairs_((9,_10),_(37,_39)) + edgepairs_((9,_10),_(39,_40))
 - nodepairs_(10,_39) - nodepairs_(9,_39) <= 0
_C5307: edgepairs_((10,_11),_(37,_39)) + edgepairs_((10,_11),_(39,_40))
 - nodepairs_(10,_39) - nodepairs_(11,_39) <= 0
_C5308: edgepairs_((11,_12),_(37,_39)) + edgepairs_((11,_12),_(39,_40))
 - nodepairs_(11,_39) - nodepairs_(12,_39) <= 0
_C5309: edgepairs_((12,_13),_(37,_39)) + edgepairs_((12,_13),_(39,_40))
 - nodepairs_(12,_39) - nodepairs_(13,_39) <= 0
_C531: - nodepairs_(5,_42) <= 0
_C5310: edgepairs_((13,_14),_(37,_39)) + edgepairs_((13,_14),_(39,_40))
 - nodepairs_(13,_39) - nodepairs_(14,_39) <= 0
_C5311: edgepairs_((14,_15),_(37,_39)) + edgepairs_((14,_15),_(39,_40))
 - nodepairs_(14,_39) - nodepairs_(15,_39) <= 0
_C5312: edgepairs_((15,_16),_(37,_39)) + edgepairs_((15,_16),_(39,_40))
 - nodepairs_(15,_39) - nodepairs_(16,_39) <= 0
_C5313: edgepairs_((16,_17),_(37,_39)) + edgepairs_((16,_17),_(39,_40))
 - nodepairs_(16,_39) - nodepairs_(17,_39) <= 0
_C5314: edgepairs_((17,_18),_(37,_39)) + edgepairs_((17,_18),_(39,_40))
 - nodepairs_(17,_39) - nodepairs_(18,_39) <= 0
_C5315: edgepairs_((18,_19),_(37,_39)) + edgepairs_((18,_19),_(39,_40))
 - nodepairs_(18,_39) - nodepairs_(19,_39) <= 0
_C5316: edgepairs_((19,_20),_(37,_39)) + edgepairs_((19,_20),_(39,_40))
 - nodepairs_(19,_39) - nodepairs_(20,_39) <= 0
_C5317: edgepairs_((20,_21),_(37,_39)) + edgepairs_((20,_21),_(39,_40))
 - nodepairs_(20,_39) - nodepairs_(21,_39) <= 0
_C5318: edgepairs_((21,_22),_(37,_39)) + edgepairs_((21,_22),_(39,_40))
 - nodepairs_(21,_39) - nodepairs_(22,_39) <= 0
_C5319: edgepairs_((22,_23),_(37,_39)) + edgepairs_((22,_23),_(39,_40))
 - nodepairs_(22,_39) - nodepairs_(23,_39) <= 0
_C532: edgepairs_((3,_5),_(42,_44)) + edgepairs_((5,_6),_(42,_44))
 - nodepairs_(5,_42) - nodepairs_(5,_44) <= 0
_C5320: edgepairs_((23,_24),_(37,_39)) + edgepairs_((23,_24),_(39,_40))
 - nodepairs_(23,_39) - nodepairs_(24,_39) <= 0
_C5321: edgepairs_((23,_25),_(37,_39)) + edgepairs_((23,_25),_(39,_40))
 - nodepairs_(23,_39) - nodepairs_(25,_39) <= 0
_C5322: - nodepairs_(26,_39) <= 0
_C5323: - nodepairs_(28,_39) <= 0
_C5324: - nodepairs_(28,_39) <= 0
_C5325: edgepairs_((28,_30),_(37,_39)) + edgepairs_((28,_30),_(39,_40))
 - nodepairs_(28,_39) - nodepairs_(30,_39) <= 0
_C5326: edgepairs_((30,_31),_(37,_39)) + edgepairs_((30,_31),_(39,_40))
 - nodepairs_(30,_39) - nodepairs_(31,_39) <= 0
_C5327: edgepairs_((31,_32),_(37,_39)) + edgepairs_((31,_32),_(39,_40))
 - nodepairs_(31,_39) - nodepairs_(32,_39) <= 0
_C5328: edgepairs_((32,_33),_(37,_39)) + edgepairs_((32,_33),_(39,_40))
 - nodepairs_(32,_39) - nodepairs_(33,_39) <= 0
_C5329: edgepairs_((33,_34),_(37,_39)) + edgepairs_((33,_34),_(39,_40))
 - nodepairs_(33,_39) - nodepairs_(34,_39) <= 0
_C533: edgepairs_((3,_5),_(44,_45)) + edgepairs_((5,_6),_(44,_45))
 - nodepairs_(5,_44) - nodepairs_(5,_45) <= 0
_C5330: edgepairs_((34,_35),_(37,_39)) + edgepairs_((34,_35),_(39,_40))
 - nodepairs_(34,_39) - nodepairs_(35,_39) <= 0
_C5331: edgepairs_((35,_36),_(37,_39)) + edgepairs_((35,_36),_(39,_40))
 - nodepairs_(35,_39) - nodepairs_(36,_39) <= 0
_C5332: edgepairs_((36,_37),_(37,_39)) + edgepairs_((36,_37),_(39,_40))
 - nodepairs_(36,_39) - nodepairs_(37,_39) <= 0
_C5333: edgepairs_((37,_38),_(37,_39)) + edgepairs_((37,_38),_(39,_40))
 - nodepairs_(37,_39) - nodepairs_(38,_39) <= 0
_C5334: edgepairs_((38,_39),_(37,_39)) + edgepairs_((38,_39),_(39,_40))
 - nodepairs_(38,_39) - nodepairs_(39,_39) <= 0
_C5335: edgepairs_((39,_40),_(37,_39)) + edgepairs_((39,_40),_(39,_40))
 - nodepairs_(39,_39) - nodepairs_(40,_39) <= 0
_C5336: edgepairs_((40,_41),_(37,_39)) + edgepairs_((40,_41),_(39,_40))
 - nodepairs_(40,_39) - nodepairs_(41,_39) <= 0
_C5337: edgepairs_((40,_42),_(37,_39)) + edgepairs_((40,_42),_(39,_40))
 - nodepairs_(40,_39) - nodepairs_(42,_39) <= 0
_C5338: - nodepairs_(44,_39) <= 0
_C5339: - nodepairs_(44,_39) <= 0
_C534: edgepairs_((3,_5),_(45,_46)) + edgepairs_((5,_6),_(45,_46))
 - nodepairs_(5,_45) - nodepairs_(5,_46) <= 0
_C5340: edgepairs_((44,_46),_(37,_39)) + edgepairs_((44,_46),_(39,_40))
 - nodepairs_(44,_39) - nodepairs_(46,_39) <= 0
_C5341: edgepairs_((46,_47),_(37,_39)) + edgepairs_((46,_47),_(39,_40))
 - nodepairs_(46,_39) - nodepairs_(47,_39) <= 0
_C5342: edgepairs_((47,_48),_(37,_39)) + edgepairs_((47,_48),_(39,_40))
 - nodepairs_(47,_39) - nodepairs_(48,_39) <= 0
_C5343: edgepairs_((48,_49),_(37,_39)) + edgepairs_((48,_49),_(39,_40))
 - nodepairs_(48,_39) - nodepairs_(49,_39) <= 0
_C5344: edgepairs_((49,_50),_(37,_39)) + edgepairs_((49,_50),_(39,_40))
 - nodepairs_(49,_39) - nodepairs_(50,_39) <= 0
_C5345: edgepairs_((50,_51),_(37,_39)) + edgepairs_((50,_51),_(39,_40))
 - nodepairs_(50,_39) - nodepairs_(51,_39) <= 0
_C5346: edgepairs_((51,_52),_(37,_39)) + edgepairs_((51,_52),_(39,_40))
 - nodepairs_(51,_39) - nodepairs_(52,_39) <= 0
_C5347: edgepairs_((52,_53),_(37,_39)) + edgepairs_((52,_53),_(39,_40))
 - nodepairs_(52,_39) - nodepairs_(53,_39) <= 0
_C5348: edgepairs_((53,_54),_(37,_39)) + edgepairs_((53,_54),_(39,_40))
 - nodepairs_(53,_39) - nodepairs_(54,_39) <= 0
_C5349: edgepairs_((0,_1),_(39,_40)) - nodepairs_(0,_40) - nodepairs_(1,_40)
 <= 0
_C535: edgepairs_((3,_5),_(46,_47)) + edgepairs_((5,_6),_(46,_47))
 - nodepairs_(5,_46) - nodepairs_(5,_47) <= 0
_C5350: edgepairs_((0,_26),_(39,_40)) - nodepairs_(0,_40) - nodepairs_(26,_40)
 <= 0
_C5351: - nodepairs_(0,_40) <= 0
_C5352: - nodepairs_(1,_40) <= 0
_C5353: - nodepairs_(3,_40) <= 0
_C5354: - nodepairs_(3,_40) <= 0
_C5355: edgepairs_((3,_5),_(39,_40)) - nodepairs_(3,_40) - nodepairs_(5,_40)
 <= 0
_C5356: edgepairs_((5,_6),_(39,_40)) - nodepairs_(5,_40) - nodepairs_(6,_40)
 <= 0
_C5357: edgepairs_((6,_7),_(39,_40)) - nodepairs_(6,_40) - nodepairs_(7,_40)
 <= 0
_C5358: edgepairs_((7,_8),_(39,_40)) - nodepairs_(7,_40) - nodepairs_(8,_40)
 <= 0
_C5359: edgepairs_((8,_9),_(39,_40)) - nodepairs_(8,_40) - nodepairs_(9,_40)
 <= 0
_C536: edgepairs_((3,_5),_(47,_48)) + edgepairs_((5,_6),_(47,_48))
 - nodepairs_(5,_47) - nodepairs_(5,_48) <= 0
_C5360: edgepairs_((9,_10),_(39,_40)) - nodepairs_(10,_40) - nodepairs_(9,_40)
 <= 0
_C5361: edgepairs_((10,_11),_(39,_40)) - nodepairs_(10,_40)
 - nodepairs_(11,_40) <= 0
_C5362: edgepairs_((11,_12),_(39,_40)) - nodepairs_(11,_40)
 - nodepairs_(12,_40) <= 0
_C5363: edgepairs_((12,_13),_(39,_40)) - nodepairs_(12,_40)
 - nodepairs_(13,_40) <= 0
_C5364: edgepairs_((13,_14),_(39,_40)) - nodepairs_(13,_40)
 - nodepairs_(14,_40) <= 0
_C5365: edgepairs_((14,_15),_(39,_40)) - nodepairs_(14,_40)
 - nodepairs_(15,_40) <= 0
_C5366: edgepairs_((15,_16),_(39,_40)) - nodepairs_(15,_40)
 - nodepairs_(16,_40) <= 0
_C5367: edgepairs_((16,_17),_(39,_40)) - nodepairs_(16,_40)
 - nodepairs_(17,_40) <= 0
_C5368: edgepairs_((17,_18),_(39,_40)) - nodepairs_(17,_40)
 - nodepairs_(18,_40) <= 0
_C5369: edgepairs_((18,_19),_(39,_40)) - nodepairs_(18,_40)
 - nodepairs_(19,_40) <= 0
_C537: edgepairs_((3,_5),_(48,_49)) + edgepairs_((5,_6),_(48,_49))
 - nodepairs_(5,_48) - nodepairs_(5,_49) <= 0
_C5370: edgepairs_((19,_20),_(39,_40)) - nodepairs_(19,_40)
 - nodepairs_(20,_40) <= 0
_C5371: edgepairs_((20,_21),_(39,_40)) - nodepairs_(20,_40)
 - nodepairs_(21,_40) <= 0
_C5372: edgepairs_((21,_22),_(39,_40)) - nodepairs_(21,_40)
 - nodepairs_(22,_40) <= 0
_C5373: edgepairs_((22,_23),_(39,_40)) - nodepairs_(22,_40)
 - nodepairs_(23,_40) <= 0
_C5374: edgepairs_((23,_24),_(39,_40)) - nodepairs_(23,_40)
 - nodepairs_(24,_40) <= 0
_C5375: edgepairs_((23,_25),_(39,_40)) - nodepairs_(23,_40)
 - nodepairs_(25,_40) <= 0
_C5376: - nodepairs_(26,_40) <= 0
_C5377: - nodepairs_(28,_40) <= 0
_C5378: - nodepairs_(28,_40) <= 0
_C5379: edgepairs_((28,_30),_(39,_40)) - nodepairs_(28,_40)
 - nodepairs_(30,_40) <= 0
_C538: edgepairs_((3,_5),_(49,_50)) + edgepairs_((5,_6),_(49,_50))
 - nodepairs_(5,_49) - nodepairs_(5,_50) <= 0
_C5380: edgepairs_((30,_31),_(39,_40)) - nodepairs_(30,_40)
 - nodepairs_(31,_40) <= 0
_C5381: edgepairs_((31,_32),_(39,_40)) - nodepairs_(31,_40)
 - nodepairs_(32,_40) <= 0
_C5382: edgepairs_((32,_33),_(39,_40)) - nodepairs_(32,_40)
 - nodepairs_(33,_40) <= 0
_C5383: edgepairs_((33,_34),_(39,_40)) - nodepairs_(33,_40)
 - nodepairs_(34,_40) <= 0
_C5384: edgepairs_((34,_35),_(39,_40)) - nodepairs_(34,_40)
 - nodepairs_(35,_40) <= 0
_C5385: edgepairs_((35,_36),_(39,_40)) - nodepairs_(35,_40)
 - nodepairs_(36,_40) <= 0
_C5386: edgepairs_((36,_37),_(39,_40)) - nodepairs_(36,_40)
 - nodepairs_(37,_40) <= 0
_C5387: edgepairs_((37,_38),_(39,_40)) - nodepairs_(37,_40)
 - nodepairs_(38,_40) <= 0
_C5388: edgepairs_((38,_39),_(39,_40)) - nodepairs_(38,_40)
 - nodepairs_(39,_40) <= 0
_C5389: edgepairs_((39,_40),_(39,_40)) - nodepairs_(39,_40)
 - nodepairs_(40,_40) <= 0
_C539: edgepairs_((3,_5),_(50,_51)) + edgepairs_((5,_6),_(50,_51))
 - nodepairs_(5,_50) - nodepairs_(5,_51) <= 0
_C5390: edgepairs_((40,_41),_(39,_40)) - nodepairs_(40,_40)
 - nodepairs_(41,_40) <= 0
_C5391: edgepairs_((40,_42),_(39,_40)) - nodepairs_(40,_40)
 - nodepairs_(42,_40) <= 0
_C5392: - nodepairs_(44,_40) <= 0
_C5393: - nodepairs_(44,_40) <= 0
_C5394: edgepairs_((44,_46),_(39,_40)) - nodepairs_(44,_40)
 - nodepairs_(46,_40) <= 0
_C5395: edgepairs_((46,_47),_(39,_40)) - nodepairs_(46,_40)
 - nodepairs_(47,_40) <= 0
_C5396: edgepairs_((47,_48),_(39,_40)) - nodepairs_(47,_40)
 - nodepairs_(48,_40) <= 0
_C5397: edgepairs_((48,_49),_(39,_40)) - nodepairs_(48,_40)
 - nodepairs_(49,_40) <= 0
_C5398: edgepairs_((49,_50),_(39,_40)) - nodepairs_(49,_40)
 - nodepairs_(50,_40) <= 0
_C5399: edgepairs_((50,_51),_(39,_40)) - nodepairs_(50,_40)
 - nodepairs_(51,_40) <= 0
_C54: nodepairs_(53,_0) + nodepairs_(53,_1) + nodepairs_(53,_10)
 + nodepairs_(53,_11) + nodepairs_(53,_12) + nodepairs_(53,_13)
 + nodepairs_(53,_14) + nodepairs_(53,_15) + nodepairs_(53,_16)
 + nodepairs_(53,_17) + nodepairs_(53,_19) + nodepairs_(53,_21)
 + nodepairs_(53,_22) + nodepairs_(53,_23) + nodepairs_(53,_24)
 + nodepairs_(53,_25) + nodepairs_(53,_26) + nodepairs_(53,_27)
 + nodepairs_(53,_28) + nodepairs_(53,_29) + nodepairs_(53,_3)
 + nodepairs_(53,_30) + nodepairs_(53,_31) + nodepairs_(53,_32)
 + nodepairs_(53,_33) + nodepairs_(53,_34) + nodepairs_(53,_35)
 + nodepairs_(53,_36) + nodepairs_(53,_37) + nodepairs_(53,_38)
 + nodepairs_(53,_39) + nodepairs_(53,_40) + nodepairs_(53,_42)
 + nodepairs_(53,_44) + nodepairs_(53,_45) + nodepairs_(53,_46)
 + nodepairs_(53,_47) + nodepairs_(53,_48) + nodepairs_(53,_49)
 + nodepairs_(53,_5) + nodepairs_(53,_50) + nodepairs_(53,_51)
 + nodepairs_(53,_52) + nodepairs_(53,_53) + nodepairs_(53,_54)
 + nodepairs_(53,_6) + nodepairs_(53,_7) + nodepairs_(53,_8)
 + nodepairs_(53,_9) <= 1
_C540: edgepairs_((3,_5),_(51,_52)) + edgepairs_((5,_6),_(51,_52))
 - nodepairs_(5,_51) - nodepairs_(5,_52) <= 0
_C5400: edgepairs_((51,_52),_(39,_40)) - nodepairs_(51,_40)
 - nodepairs_(52,_40) <= 0
_C5401: edgepairs_((52,_53),_(39,_40)) - nodepairs_(52,_40)
 - nodepairs_(53,_40) <= 0
_C5402: edgepairs_((53,_54),_(39,_40)) - nodepairs_(53,_40)
 - nodepairs_(54,_40) <= 0
_C5403: __dummy <= 0
_C5404: __dummy <= 0
_C5405: edgepairs_((0,_43),_(0,_41)) + edgepairs_((0,_43),_(41,_42))
 - nodepairs_(43,_41) <= 0
_C5406: edgepairs_((1,_2),_(0,_41)) + edgepairs_((1,_2),_(41,_42))
 - nodepairs_(2,_41) <= 0
_C5407: edgepairs_((2,_3),_(0,_41)) + edgepairs_((2,_3),_(41,_42))
 - nodepairs_(2,_41) <= 0
_C5408: edgepairs_((3,_4),_(0,_41)) + edgepairs_((3,_4),_(41,_42))
 - nodepairs_(4,_41) <= 0
_C5409: __dummy <= 0
_C541: edgepairs_((3,_5),_(52,_53)) + edgepairs_((5,_6),_(52,_53))
 - nodepairs_(5,_52) - nodepairs_(5,_53) <= 0
_C5410: __dummy <= 0
_C5411: __dummy <= 0
_C5412: __dummy <= 0
_C5413: __dummy <= 0
_C5414: __dummy <= 0
_C5415: __dummy <= 0
_C5416: __dummy <= 0
_C5417: __dummy <= 0
_C5418: __dummy <= 0
_C5419: __dummy <= 0
_C542: edgepairs_((3,_5),_(53,_54)) + edgepairs_((5,_6),_(53,_54))
 - nodepairs_(5,_53) - nodepairs_(5,_54) <= 0
_C5420: __dummy <= 0
_C5421: __dummy <= 0
_C5422: __dummy <= 0
_C5423: __dummy <= 0
_C5424: __dummy <= 0
_C5425: __dummy <= 0
_C5426: __dummy <= 0
_C5427: __dummy <= 0
_C5428: __dummy <= 0
_C5429: __dummy <= 0
_C543: edgepairs_((5,_6),_(0,_1)) + edgepairs_((6,_7),_(0,_1))
 - nodepairs_(6,_0) - nodepairs_(6,_1) <= 0
_C5430: edgepairs_((26,_27),_(0,_41)) + edgepairs_((26,_27),_(41,_42))
 - nodepairs_(27,_41) <= 0
_C5431: edgepairs_((27,_28),_(0,_41)) + edgepairs_((27,_28),_(41,_42))
 - nodepairs_(27,_41) <= 0
_C5432: edgepairs_((28,_29),_(0,_41)) + edgepairs_((28,_29),_(41,_42))
 - nodepairs_(29,_41) <= 0
_C5433: __dummy <= 0
_C5434: __dummy <= 0
_C5435: __dummy <= 0
_C5436: __dummy <= 0
_C5437: __dummy <= 0
_C5438: __dummy <= 0
_C5439: __dummy <= 0
_C544: edgepairs_((5,_6),_(0,_17)) + edgepairs_((6,_7),_(0,_17))
 - nodepairs_(6,_0) - nodepairs_(6,_17) <= 0
_C5440: __dummy <= 0
_C5441: __dummy <= 0
_C5442: __dummy <= 0
_C5443: __dummy <= 0
_C5444: __dummy <= 0
_C5445: __dummy <= 0
_C5446: edgepairs_((43,_44),_(0,_41)) + edgepairs_((43,_44),_(41,_42))
 - nodepairs_(43,_41) <= 0
_C5447: edgepairs_((44,_45),_(0,_41)) + edgepairs_((44,_45),_(41,_42))
 - nodepairs_(45,_41) <= 0
_C5448: __dummy <= 0
_C5449: __dummy <= 0
_C545: - nodepairs_(6,_0) <= 0
_C5450: __dummy <= 0
_C5451: __dummy <= 0
_C5452: __dummy <= 0
_C5453: __dummy <= 0
_C5454: __dummy <= 0
_C5455: __dummy <= 0
_C5456: __dummy <= 0
_C5457: edgepairs_((0,_1),_(42,_44)) - nodepairs_(0,_42) - nodepairs_(1,_42)
 <= 0
_C5458: edgepairs_((0,_26),_(42,_44)) - nodepairs_(0,_42) - nodepairs_(26,_42)
 <= 0
_C5459: edgepairs_((0,_43),_(41,_42)) + edgepairs_((0,_43),_(42,_43))
 - nodepairs_(0,_42) <= 0
_C546: - nodepairs_(6,_1) <= 0
_C5460: edgepairs_((1,_2),_(41,_42)) + edgepairs_((1,_2),_(42,_43))
 - nodepairs_(1,_42) <= 0
_C5461: edgepairs_((2,_3),_(41,_42)) + edgepairs_((2,_3),_(42,_43))
 - nodepairs_(3,_42) <= 0
_C5462: edgepairs_((3,_4),_(41,_42)) + edgepairs_((3,_4),_(42,_43))
 - nodepairs_(3,_42) <= 0
_C5463: edgepairs_((3,_5),_(42,_44)) - nodepairs_(3,_42) - nodepairs_(5,_42)
 <= 0
_C5464: edgepairs_((5,_6),_(42,_44)) - nodepairs_(5,_42) - nodepairs_(6,_42)
 <= 0
_C5465: edgepairs_((6,_7),_(42,_44)) - nodepairs_(6,_42) - nodepairs_(7,_42)
 <= 0
_C5466: edgepairs_((7,_8),_(42,_44)) - nodepairs_(7,_42) - nodepairs_(8,_42)
 <= 0
_C5467: edgepairs_((8,_9),_(42,_44)) - nodepairs_(8,_42) - nodepairs_(9,_42)
 <= 0
_C5468: edgepairs_((9,_10),_(42,_44)) - nodepairs_(10,_42) - nodepairs_(9,_42)
 <= 0
_C5469: edgepairs_((10,_11),_(42,_44)) - nodepairs_(10,_42)
 - nodepairs_(11,_42) <= 0
_C547: - nodepairs_(6,_3) <= 0
_C5470: edgepairs_((11,_12),_(42,_44)) - nodepairs_(11,_42)
 - nodepairs_(12,_42) <= 0
_C5471: edgepairs_((12,_13),_(42,_44)) - nodepairs_(12,_42)
 - nodepairs_(13,_42) <= 0
_C5472: edgepairs_((13,_14),_(42,_44)) - nodepairs_(13,_42)
 - nodepairs_(14,_42) <= 0
_C5473: edgepairs_((14,_15),_(42,_44)) - nodepairs_(14,_42)
 - nodepairs_(15,_42) <= 0
_C5474: edgepairs_((15,_16),_(42,_44)) - nodepairs_(15,_42)
 - nodepairs_(16,_42) <= 0
_C5475: edgepairs_((16,_17),_(42,_44)) - nodepairs_(16,_42)
 - nodepairs_(17,_42) <= 0
_C5476: edgepairs_((17,_18),_(42,_44)) - nodepairs_(17,_42)
 - nodepairs_(18,_42) <= 0
_C5477: edgepairs_((18,_19),_(42,_44)) - nodepairs_(18,_42)
 - nodepairs_(19,_42) <= 0
_C5478: edgepairs_((19,_20),_(42,_44)) - nodepairs_(19,_42)
 - nodepairs_(20,_42) <= 0
_C5479: edgepairs_((20,_21),_(42,_44)) - nodepairs_(20,_42)
 - nodepairs_(21,_42) <= 0
_C548: - nodepairs_(6,_3) <= 0
_C5480: edgepairs_((21,_22),_(42,_44)) - nodepairs_(21,_42)
 - nodepairs_(22,_42) <= 0
_C5481: edgepairs_((22,_23),_(42,_44)) - nodepairs_(22,_42)
 - nodepairs_(23,_42) <= 0
_C5482: edgepairs_((23,_24),_(42,_44)) - nodepairs_(23,_42)
 - nodepairs_(24,_42) <= 0
_C5483: edgepairs_((23,_25),_(42,_44)) - nodepairs_(23,_42)
 - nodepairs_(25,_42) <= 0
_C5484: edgepairs_((26,_27),_(41,_42)) + edgepairs_((26,_27),_(42,_43))
 - nodepairs_(26,_42) <= 0
_C5485: edgepairs_((27,_28),_(41,_42)) + edgepairs_((27,_28),_(42,_43))
 - nodepairs_(28,_42) <= 0
_C5486: edgepairs_((28,_29),_(41,_42)) + edgepairs_((28,_29),_(42,_43))
 - nodepairs_(28,_42) <= 0
_C5487: edgepairs_((28,_30),_(42,_44)) - nodepairs_(28,_42)
 - nodepairs_(30,_42) <= 0
_C5488: edgepairs_((30,_31),_(42,_44)) - nodepairs_(30,_42)
 - nodepairs_(31,_42) <= 0
_C5489: edgepairs_((31,_32),_(42,_44)) - nodepairs_(31,_42)
 - nodepairs_(32,_42) <= 0
_C549: edgepairs_((5,_6),_(3,_5)) + edgepairs_((6,_7),_(3,_5))
 - nodepairs_(6,_3) - nodepairs_(6,_5) <= 0
_C5490: edgepairs_((32,_33),_(42,_44)) - nodepairs_(32,_42)
 - nodepairs_(33,_42) <= 0
_C5491: edgepairs_((33,_34),_(42,_44)) - nodepairs_(33,_42)
 - nodepairs_(34,_42) <= 0
_C5492: edgepairs_((34,_35),_(42,_44)) - nodepairs_(34,_42)
 - nodepairs_(35,_42) <= 0
_C5493: edgepairs_((35,_36),_(42,_44)) - nodepairs_(35,_42)
 - nodepairs_(36,_42) <= 0
_C5494: edgepairs_((36,_37),_(42,_44)) - nodepairs_(36,_42)
 - nodepairs_(37,_42) <= 0
_C5495: edgepairs_((37,_38),_(42,_44)) - nodepairs_(37,_42)
 - nodepairs_(38,_42) <= 0
_C5496: edgepairs_((38,_39),_(42,_44)) - nodepairs_(38,_42)
 - nodepairs_(39,_42) <= 0
_C5497: edgepairs_((39,_40),_(42,_44)) - nodepairs_(39,_42)
 - nodepairs_(40,_42) <= 0
_C5498: edgepairs_((40,_41),_(42,_44)) - nodepairs_(40,_42)
 - nodepairs_(41,_42) <= 0
_C5499: edgepairs_((40,_42),_(42,_44)) - nodepairs_(40,_42)
 - nodepairs_(42,_42) <= 0
_C55: nodepairs_(54,_0) + nodepairs_(54,_1) + nodepairs_(54,_10)
 + nodepairs_(54,_11) + nodepairs_(54,_12) + nodepairs_(54,_13)
 + nodepairs_(54,_14) + nodepairs_(54,_15) + nodepairs_(54,_16)
 + nodepairs_(54,_17) + nodepairs_(54,_19) + nodepairs_(54,_21)
 + nodepairs_(54,_22) + nodepairs_(54,_23) + nodepairs_(54,_24)
 + nodepairs_(54,_25) + nodepairs_(54,_26) + nodepairs_(54,_27)
 + nodepairs_(54,_28) + nodepairs_(54,_29) + nodepairs_(54,_3)
 + nodepairs_(54,_30) + nodepairs_(54,_31) + nodepairs_(54,_32)
 + nodepairs_(54,_33) + nodepairs_(54,_34) + nodepairs_(54,_35)
 + nodepairs_(54,_36) + nodepairs_(54,_37) + nodepairs_(54,_38)
 + nodepairs_(54,_39) + nodepairs_(54,_40) + nodepairs_(54,_42)
 + nodepairs_(54,_44) + nodepairs_(54,_45) + nodepairs_(54,_46)
 + nodepairs_(54,_47) + nodepairs_(54,_48) + nodepairs_(54,_49)
 + nodepairs_(54,_5) + nodepairs_(54,_50) + nodepairs_(54,_51)
 + nodepairs_(54,_52) + nodepairs_(54,_53) + nodepairs_(54,_54)
 + nodepairs_(54,_6) + nodepairs_(54,_7) + nodepairs_(54,_8)
 + nodepairs_(54,_9) <= 1
_C550: edgepairs_((5,_6),_(5,_6)) + edgepairs_((6,_7),_(5,_6))
 - nodepairs_(6,_5) - nodepairs_(6,_6) <= 0
_C5500: edgepairs_((43,_44),_(41,_42)) + edgepairs_((43,_44),_(42,_43))
 - nodepairs_(44,_42) <= 0
_C5501: edgepairs_((44,_45),_(41,_42)) + edgepairs_((44,_45),_(42,_43))
 - nodepairs_(44,_42) <= 0
_C5502: edgepairs_((44,_46),_(42,_44)) - nodepairs_(44,_42)
 - nodepairs_(46,_42) <= 0
_C5503: edgepairs_((46,_47),_(42,_44)) - nodepairs_(46,_42)
 - nodepairs_(47,_42) <= 0
_C5504: edgepairs_((47,_48),_(42,_44)) - nodepairs_(47,_42)
 - nodepairs_(48,_42) <= 0
_C5505: edgepairs_((48,_49),_(42,_44)) - nodepairs_(48,_42)
 - nodepairs_(49,_42) <= 0
_C5506: edgepairs_((49,_50),_(42,_44)) - nodepairs_(49,_42)
 - nodepairs_(50,_42) <= 0
_C5507: edgepairs_((50,_51),_(42,_44)) - nodepairs_(50,_42)
 - nodepairs_(51,_42) <= 0
_C5508: edgepairs_((51,_52),_(42,_44)) - nodepairs_(51,_42)
 - nodepairs_(52,_42) <= 0
_C5509: edgepairs_((52,_53),_(42,_44)) - nodepairs_(52,_42)
 - nodepairs_(53,_42) <= 0
_C551: edgepairs_((5,_6),_(6,_7)) + edgepairs_((6,_7),_(6,_7))
 - nodepairs_(6,_6) - nodepairs_(6,_7) <= 0
_C5510: edgepairs_((53,_54),_(42,_44)) - nodepairs_(53,_42)
 - nodepairs_(54,_42) <= 0
_C5511: __dummy <= 0
_C5512: __dummy <= 0
_C5513: edgepairs_((0,_43),_(42,_43)) - nodepairs_(43,_43) <= 0
_C5514: edgepairs_((1,_2),_(42,_43)) - nodepairs_(2,_43) <= 0
_C5515: edgepairs_((2,_3),_(42,_43)) - nodepairs_(2,_43) <= 0
_C5516: edgepairs_((3,_4),_(42,_43)) - nodepairs_(4,_43) <= 0
_C5517: __dummy <= 0
_C5518: __dummy <= 0
_C5519: __dummy <= 0
_C552: edgepairs_((5,_6),_(7,_8)) + edgepairs_((6,_7),_(7,_8))
 - nodepairs_(6,_7) - nodepairs_(6,_8) <= 0
_C5520: __dummy <= 0
_C5521: __dummy <= 0
_C5522: __dummy <= 0
_C5523: __dummy <= 0
_C5524: __dummy <= 0
_C5525: __dummy <= 0
_C5526: __dummy <= 0
_C5527: __dummy <= 0
_C5528: __dummy <= 0
_C5529: __dummy <= 0
_C553: edgepairs_((5,_6),_(8,_9)) + edgepairs_((6,_7),_(8,_9))
 - nodepairs_(6,_8) - nodepairs_(6,_9) <= 0
_C5530: __dummy <= 0
_C5531: __dummy <= 0
_C5532: __dummy <= 0
_C5533: __dummy <= 0
_C5534: __dummy <= 0
_C5535: __dummy <= 0
_C5536: __dummy <= 0
_C5537: __dummy <= 0
_C5538: edgepairs_((26,_27),_(42,_43)) - nodepairs_(27,_43) <= 0
_C5539: edgepairs_((27,_28),_(42,_43)) - nodepairs_(27,_43) <= 0
_C554: edgepairs_((5,_6),_(9,_10)) + edgepairs_((6,_7),_(9,_10))
 - nodepairs_(6,_10) - nodepairs_(6,_9) <= 0
_C5540: edgepairs_((28,_29),_(42,_43)) - nodepairs_(29,_43) <= 0
_C5541: __dummy <= 0
_C5542: __dummy <= 0
_C5543: __dummy <= 0
_C5544: __dummy <= 0
_C5545: __dummy <= 0
_C5546: __dummy <= 0
_C5547: __dummy <= 0
_C5548: __dummy <= 0
_C5549: __dummy <= 0
_C555: edgepairs_((5,_6),_(10,_11)) + edgepairs_((6,_7),_(10,_11))
 - nodepairs_(6,_10) - nodepairs_(6,_11) <= 0
_C5550: __dummy <= 0
_C5551: __dummy <= 0
_C5552: __dummy <= 0
_C5553: __dummy <= 0
_C5554: edgepairs_((43,_44),_(42,_43)) - nodepairs_(43,_43) <= 0
_C5555: edgepairs_((44,_45),_(42,_43)) - nodepairs_(45,_43) <= 0
_C5556: __dummy <= 0
_C5557: __dummy <= 0
_C5558: __dummy <= 0
_C5559: __dummy <= 0
_C556: edgepairs_((5,_6),_(11,_12)) + edgepairs_((6,_7),_(11,_12))
 - nodepairs_(6,_11) - nodepairs_(6,_12) <= 0
_C5560: __dummy <= 0
_C5561: __dummy <= 0
_C5562: __dummy <= 0
_C5563: __dummy <= 0
_C5564: __dummy <= 0
_C5565: edgepairs_((0,_1),_(42,_44)) + edgepairs_((0,_1),_(44,_45))
 - nodepairs_(0,_44) - nodepairs_(1,_44) <= 0
_C5566: edgepairs_((0,_26),_(42,_44)) + edgepairs_((0,_26),_(44,_45))
 - nodepairs_(0,_44) - nodepairs_(26,_44) <= 0
_C5567: - nodepairs_(0,_44) <= 0
_C5568: - nodepairs_(1,_44) <= 0
_C5569: - nodepairs_(3,_44) <= 0
_C557: edgepairs_((5,_6),_(12,_13)) + edgepairs_((6,_7),_(12,_13))
 - nodepairs_(6,_12) - nodepairs_(6,_13) <= 0
_C5570: - nodepairs_(3,_44) <= 0
_C5571: edgepairs_((3,_5),_(42,_44)) + edgepairs_((3,_5),_(44,_45))
 - nodepairs_(3,_44) - nodepairs_(5,_44) <= 0
_C5572: edgepairs_((5,_6),_(42,_44)) + edgepairs_((5,_6),_(44,_45))
 - nodepairs_(5,_44) - nodepairs_(6,_44) <= 0
_C5573: edgepairs_((6,_7),_(42,_44)) + edgepairs_((6,_7),_(44,_45))
 - nodepairs_(6,_44) - nodepairs_(7,_44) <= 0
_C5574: edgepairs_((7,_8),_(42,_44)) + edgepairs_((7,_8),_(44,_45))
 - nodepairs_(7,_44) - nodepairs_(8,_44) <= 0
_C5575: edgepairs_((8,_9),_(42,_44)) + edgepairs_((8,_9),_(44,_45))
 - nodepairs_(8,_44) - nodepairs_(9,_44) <= 0
_C5576: edgepairs_((9,_10),_(42,_44)) + edgepairs_((9,_10),_(44,_45))
 - nodepairs_(10,_44) - nodepairs_(9,_44) <= 0
_C5577: edgepairs_((10,_11),_(42,_44)) + edgepairs_((10,_11),_(44,_45))
 - nodepairs_(10,_44) - nodepairs_(11,_44) <= 0
_C5578: edgepairs_((11,_12),_(42,_44)) + edgepairs_((11,_12),_(44,_45))
 - nodepairs_(11,_44) - nodepairs_(12,_44) <= 0
_C5579: edgepairs_((12,_13),_(42,_44)) + edgepairs_((12,_13),_(44,_45))
 - nodepairs_(12,_44) - nodepairs_(13,_44) <= 0
_C558: edgepairs_((5,_6),_(13,_14)) + edgepairs_((6,_7),_(13,_14))
 - nodepairs_(6,_13) - nodepairs_(6,_14) <= 0
_C5580: edgepairs_((13,_14),_(42,_44)) + edgepairs_((13,_14),_(44,_45))
 - nodepairs_(13,_44) - nodepairs_(14,_44) <= 0
_C5581: edgepairs_((14,_15),_(42,_44)) + edgepairs_((14,_15),_(44,_45))
 - nodepairs_(14,_44) - nodepairs_(15,_44) <= 0
_C5582: edgepairs_((15,_16),_(42,_44)) + edgepairs_((15,_16),_(44,_45))
 - nodepairs_(15,_44) - nodepairs_(16,_44) <= 0
_C5583: edgepairs_((16,_17),_(42,_44)) + edgepairs_((16,_17),_(44,_45))
 - nodepairs_(16,_44) - nodepairs_(17,_44) <= 0
_C5584: edgepairs_((17,_18),_(42,_44)) + edgepairs_((17,_18),_(44,_45))
 - nodepairs_(17,_44) - nodepairs_(18,_44) <= 0
_C5585: edgepairs_((18,_19),_(42,_44)) + edgepairs_((18,_19),_(44,_45))
 - nodepairs_(18,_44) - nodepairs_(19,_44) <= 0
_C5586: edgepairs_((19,_20),_(42,_44)) + edgepairs_((19,_20),_(44,_45))
 - nodepairs_(19,_44) - nodepairs_(20,_44) <= 0
_C5587: edgepairs_((20,_21),_(42,_44)) + edgepairs_((20,_21),_(44,_45))
 - nodepairs_(20,_44) - nodepairs_(21,_44) <= 0
_C5588: edgepairs_((21,_22),_(42,_44)) + edgepairs_((21,_22),_(44,_45))
 - nodepairs_(21,_44) - nodepairs_(22,_44) <= 0
_C5589: edgepairs_((22,_23),_(42,_44)) + edgepairs_((22,_23),_(44,_45))
 - nodepairs_(22,_44) - nodepairs_(23,_44) <= 0
_C559: edgepairs_((5,_6),_(14,_15)) + edgepairs_((6,_7),_(14,_15))
 - nodepairs_(6,_14) - nodepairs_(6,_15) <= 0
_C5590: edgepairs_((23,_24),_(42,_44)) + edgepairs_((23,_24),_(44,_45))
 - nodepairs_(23,_44) - nodepairs_(24,_44) <= 0
_C5591: edgepairs_((23,_25),_(42,_44)) + edgepairs_((23,_25),_(44,_45))
 - nodepairs_(23,_44) - nodepairs_(25,_44) <= 0
_C5592: - nodepairs_(26,_44) <= 0
_C5593: - nodepairs_(28,_44) <= 0
_C5594: - nodepairs_(28,_44) <= 0
_C5595: edgepairs_((28,_30),_(42,_44)) + edgepairs_((28,_30),_(44,_45))
 - nodepairs_(28,_44) - nodepairs_(30,_44) <= 0
_C5596: edgepairs_((30,_31),_(42,_44)) + edgepairs_((30,_31),_(44,_45))
 - nodepairs_(30,_44) - nodepairs_(31,_44) <= 0
_C5597: edgepairs_((31,_32),_(42,_44)) + edgepairs_((31,_32),_(44,_45))
 - nodepairs_(31,_44) - nodepairs_(32,_44) <= 0
_C5598: edgepairs_((32,_33),_(42,_44)) + edgepairs_((32,_33),_(44,_45))
 - nodepairs_(32,_44) - nodepairs_(33,_44) <= 0
_C5599: edgepairs_((33,_34),_(42,_44)) + edgepairs_((33,_34),_(44,_45))
 - nodepairs_(33,_44) - nodepairs_(34,_44) <= 0
_C56: nodepairs_(0,_0) + nodepairs_(1,_0) + nodepairs_(10,_0)
 + nodepairs_(11,_0) + nodepairs_(12,_0) + nodepairs_(13,_0)
 + nodepairs_(14,_0) + nodepairs_(15,_0) + nodepairs_(16,_0)
 + nodepairs_(17,_0) + nodepairs_(18,_0) + nodepairs_(19,_0)
 + nodepairs_(20,_0) + nodepairs_(21,_0) + nodepairs_(22,_0)
 + nodepairs_(23,_0) + nodepairs_(24,_0) + nodepairs_(25,_0)
 + nodepairs_(26,_0) + nodepairs_(28,_0) + nodepairs_(3,_0)
 + nodepairs_(30,_0) + nodepairs_(31,_0) + nodepairs_(32,_0)
 + nodepairs_(33,_0) + nodepairs_(34,_0) + nodepairs_(35,_0)
 + nodepairs_(36,_0) + nodepairs_(37,_0) + nodepairs_(38,_0)
 + nodepairs_(39,_0) + nodepairs_(40,_0) + nodepairs_(41,_0)
 + nodepairs_(42,_0) + nodepairs_(44,_0) + nodepairs_(46,_0)
 + nodepairs_(47,_0) + nodepairs_(48,_0) + nodepairs_(49,_0)
 + nodepairs_(5,_0) + nodepairs_(50,_0) + nodepairs_(51,_0)
 + nodepairs_(52,_0) + nodepairs_(53,_0) + nodepairs_(54,_0)
 + nodepairs_(6,_0) + nodepairs_(7,_0) + nodepairs_(8,_0) + nodepairs_(9,_0)
 <= 1
_C560: edgepairs_((5,_6),_(15,_16)) + edgepairs_((6,_7),_(15,_16))
 - nodepairs_(6,_15) - nodepairs_(6,_16) <= 0
_C5600: edgepairs_((34,_35),_(42,_44)) + edgepairs_((34,_35),_(44,_45))
 - nodepairs_(34,_44) - nodepairs_(35,_44) <= 0
_C5601: edgepairs_((35,_36),_(42,_44)) + edgepairs_((35,_36),_(44,_45))
 - nodepairs_(35,_44) - nodepairs_(36,_44) <= 0
_C5602: edgepairs_((36,_37),_(42,_44)) + edgepairs_((36,_37),_(44,_45))
 - nodepairs_(36,_44) - nodepairs_(37,_44) <= 0
_C5603: edgepairs_((37,_38),_(42,_44)) + edgepairs_((37,_38),_(44,_45))
 - nodepairs_(37,_44) - nodepairs_(38,_44) <= 0
_C5604: edgepairs_((38,_39),_(42,_44)) + edgepairs_((38,_39),_(44,_45))
 - nodepairs_(38,_44) - nodepairs_(39,_44) <= 0
_C5605: edgepairs_((39,_40),_(42,_44)) + edgepairs_((39,_40),_(44,_45))
 - nodepairs_(39,_44) - nodepairs_(40,_44) <= 0
_C5606: edgepairs_((40,_41),_(42,_44)) + edgepairs_((40,_41),_(44,_45))
 - nodepairs_(40,_44) - nodepairs_(41,_44) <= 0
_C5607: edgepairs_((40,_42),_(42,_44)) + edgepairs_((40,_42),_(44,_45))
 - nodepairs_(40,_44) - nodepairs_(42,_44) <= 0
_C5608: - nodepairs_(44,_44) <= 0
_C5609: - nodepairs_(44,_44) <= 0
_C561: - nodepairs_(6,_17) <= 0
_C5610: edgepairs_((44,_46),_(42,_44)) + edgepairs_((44,_46),_(44,_45))
 - nodepairs_(44,_44) - nodepairs_(46,_44) <= 0
_C5611: edgepairs_((46,_47),_(42,_44)) + edgepairs_((46,_47),_(44,_45))
 - nodepairs_(46,_44) - nodepairs_(47,_44) <= 0
_C5612: edgepairs_((47,_48),_(42,_44)) + edgepairs_((47,_48),_(44,_45))
 - nodepairs_(47,_44) - nodepairs_(48,_44) <= 0
_C5613: edgepairs_((48,_49),_(42,_44)) + edgepairs_((48,_49),_(44,_45))
 - nodepairs_(48,_44) - nodepairs_(49,_44) <= 0
_C5614: edgepairs_((49,_50),_(42,_44)) + edgepairs_((49,_50),_(44,_45))
 - nodepairs_(49,_44) - nodepairs_(50,_44) <= 0
_C5615: edgepairs_((50,_51),_(42,_44)) + edgepairs_((50,_51),_(44,_45))
 - nodepairs_(50,_44) - nodepairs_(51,_44) <= 0
_C5616: edgepairs_((51,_52),_(42,_44)) + edgepairs_((51,_52),_(44,_45))
 - nodepairs_(51,_44) - nodepairs_(52,_44) <= 0
_C5617: edgepairs_((52,_53),_(42,_44)) + edgepairs_((52,_53),_(44,_45))
 - nodepairs_(52,_44) - nodepairs_(53,_44) <= 0
_C5618: edgepairs_((53,_54),_(42,_44)) + edgepairs_((53,_54),_(44,_45))
 - nodepairs_(53,_44) - nodepairs_(54,_44) <= 0
_C5619: edgepairs_((0,_1),_(44,_45)) + edgepairs_((0,_1),_(45,_46))
 - nodepairs_(0,_45) - nodepairs_(1,_45) <= 0
_C562: - nodepairs_(6,_19) <= 0
_C5620: edgepairs_((0,_26),_(44,_45)) + edgepairs_((0,_26),_(45,_46))
 - nodepairs_(0,_45) - nodepairs_(26,_45) <= 0
_C5621: - nodepairs_(0,_45) <= 0
_C5622: - nodepairs_(1,_45) <= 0
_C5623: - nodepairs_(3,_45) <= 0
_C5624: - nodepairs_(3,_45) <= 0
_C5625: edgepairs_((3,_5),_(44,_45)) + edgepairs_((3,_5),_(45,_46))
 - nodepairs_(3,_45) - nodepairs_(5,_45) <= 0
_C5626: edgepairs_((5,_6),_(44,_45)) + edgepairs_((5,_6),_(45,_46))
 - nodepairs_(5,_45) - nodepairs_(6,_45) <= 0
_C5627: edgepairs_((6,_7),_(44,_45)) + edgepairs_((6,_7),_(45,_46))
 - nodepairs_(6,_45) - nodepairs_(7,_45) <= 0
_C5628: edgepairs_((7,_8),_(44,_45)) + edgepairs_((7,_8),_(45,_46))
 - nodepairs_(7,_45) - nodepairs_(8,_45) <= 0
_C5629: edgepairs_((8,_9),_(44,_45)) + edgepairs_((8,_9),_(45,_46))
 - nodepairs_(8,_45) - nodepairs_(9,_45) <= 0
_C563: - nodepairs_(6,_19) <= 0
_C5630: edgepairs_((9,_10),_(44,_45)) + edgepairs_((9,_10),_(45,_46))
 - nodepairs_(10,_45) - nodepairs_(9,_45) <= 0
_C5631: edgepairs_((10,_11),_(44,_45)) + edgepairs_((10,_11),_(45,_46))
 - nodepairs_(10,_45) - nodepairs_(11,_45) <= 0
_C5632: edgepairs_((11,_12),_(44,_45)) + edgepairs_((11,_12),_(45,_46))
 - nodepairs_(11,_45) - nodepairs_(12,_45) <= 0
_C5633: edgepairs_((12,_13),_(44,_45)) + edgepairs_((12,_13),_(45,_46))
 - nodepairs_(12,_45) - nodepairs_(13,_45) <= 0
_C5634: edgepairs_((13,_14),_(44,_45)) + edgepairs_((13,_14),_(45,_46))
 - nodepairs_(13,_45) - nodepairs_(14,_45) <= 0
_C5635: edgepairs_((14,_15),_(44,_45)) + edgepairs_((14,_15),_(45,_46))
 - nodepairs_(14,_45) - nodepairs_(15,_45) <= 0
_C5636: edgepairs_((15,_16),_(44,_45)) + edgepairs_((15,_16),_(45,_46))
 - nodepairs_(15,_45) - nodepairs_(16,_45) <= 0
_C5637: edgepairs_((16,_17),_(44,_45)) + edgepairs_((16,_17),_(45,_46))
 - nodepairs_(16,_45) - nodepairs_(17,_45) <= 0
_C5638: edgepairs_((17,_18),_(44,_45)) + edgepairs_((17,_18),_(45,_46))
 - nodepairs_(17,_45) - nodepairs_(18,_45) <= 0
_C5639: edgepairs_((18,_19),_(44,_45)) + edgepairs_((18,_19),_(45,_46))
 - nodepairs_(18,_45) - nodepairs_(19,_45) <= 0
_C564: edgepairs_((5,_6),_(19,_21)) + edgepairs_((6,_7),_(19,_21))
 - nodepairs_(6,_19) - nodepairs_(6,_21) <= 0
_C5640: edgepairs_((19,_20),_(44,_45)) + edgepairs_((19,_20),_(45,_46))
 - nodepairs_(19,_45) - nodepairs_(20,_45) <= 0
_C5641: edgepairs_((20,_21),_(44,_45)) + edgepairs_((20,_21),_(45,_46))
 - nodepairs_(20,_45) - nodepairs_(21,_45) <= 0
_C5642: edgepairs_((21,_22),_(44,_45)) + edgepairs_((21,_22),_(45,_46))
 - nodepairs_(21,_45) - nodepairs_(22,_45) <= 0
_C5643: edgepairs_((22,_23),_(44,_45)) + edgepairs_((22,_23),_(45,_46))
 - nodepairs_(22,_45) - nodepairs_(23,_45) <= 0
_C5644: edgepairs_((23,_24),_(44,_45)) + edgepairs_((23,_24),_(45,_46))
 - nodepairs_(23,_45) - nodepairs_(24,_45) <= 0
_C5645: edgepairs_((23,_25),_(44,_45)) + edgepairs_((23,_25),_(45,_46))
 - nodepairs_(23,_45) - nodepairs_(25,_45) <= 0
_C5646: - nodepairs_(26,_45) <= 0
_C5647: - nodepairs_(28,_45) <= 0
_C5648: - nodepairs_(28,_45) <= 0
_C5649: edgepairs_((28,_30),_(44,_45)) + edgepairs_((28,_30),_(45,_46))
 - nodepairs_(28,_45) - nodepairs_(30,_45) <= 0
_C565: edgepairs_((5,_6),_(21,_22)) + edgepairs_((6,_7),_(21,_22))
 - nodepairs_(6,_21) - nodepairs_(6,_22) <= 0
_C5650: edgepairs_((30,_31),_(44,_45)) + edgepairs_((30,_31),_(45,_46))
 - nodepairs_(30,_45) - nodepairs_(31,_45) <= 0
_C5651: edgepairs_((31,_32),_(44,_45)) + edgepairs_((31,_32),_(45,_46))
 - nodepairs_(31,_45) - nodepairs_(32,_45) <= 0
_C5652: edgepairs_((32,_33),_(44,_45)) + edgepairs_((32,_33),_(45,_46))
 - nodepairs_(32,_45) - nodepairs_(33,_45) <= 0
_C5653: edgepairs_((33,_34),_(44,_45)) + edgepairs_((33,_34),_(45,_46))
 - nodepairs_(33,_45) - nodepairs_(34,_45) <= 0
_C5654: edgepairs_((34,_35),_(44,_45)) + edgepairs_((34,_35),_(45,_46))
 - nodepairs_(34,_45) - nodepairs_(35,_45) <= 0
_C5655: edgepairs_((35,_36),_(44,_45)) + edgepairs_((35,_36),_(45,_46))
 - nodepairs_(35,_45) - nodepairs_(36,_45) <= 0
_C5656: edgepairs_((36,_37),_(44,_45)) + edgepairs_((36,_37),_(45,_46))
 - nodepairs_(36,_45) - nodepairs_(37,_45) <= 0
_C5657: edgepairs_((37,_38),_(44,_45)) + edgepairs_((37,_38),_(45,_46))
 - nodepairs_(37,_45) - nodepairs_(38,_45) <= 0
_C5658: edgepairs_((38,_39),_(44,_45)) + edgepairs_((38,_39),_(45,_46))
 - nodepairs_(38,_45) - nodepairs_(39,_45) <= 0
_C5659: edgepairs_((39,_40),_(44,_45)) + edgepairs_((39,_40),_(45,_46))
 - nodepairs_(39,_45) - nodepairs_(40,_45) <= 0
_C566: edgepairs_((5,_6),_(22,_23)) + edgepairs_((6,_7),_(22,_23))
 - nodepairs_(6,_22) - nodepairs_(6,_23) <= 0
_C5660: edgepairs_((40,_41),_(44,_45)) + edgepairs_((40,_41),_(45,_46))
 - nodepairs_(40,_45) - nodepairs_(41,_45) <= 0
_C5661: edgepairs_((40,_42),_(44,_45)) + edgepairs_((40,_42),_(45,_46))
 - nodepairs_(40,_45) - nodepairs_(42,_45) <= 0
_C5662: - nodepairs_(44,_45) <= 0
_C5663: - nodepairs_(44,_45) <= 0
_C5664: edgepairs_((44,_46),_(44,_45)) + edgepairs_((44,_46),_(45,_46))
 - nodepairs_(44,_45) - nodepairs_(46,_45) <= 0
_C5665: edgepairs_((46,_47),_(44,_45)) + edgepairs_((46,_47),_(45,_46))
 - nodepairs_(46,_45) - nodepairs_(47,_45) <= 0
_C5666: edgepairs_((47,_48),_(44,_45)) + edgepairs_((47,_48),_(45,_46))
 - nodepairs_(47,_45) - nodepairs_(48,_45) <= 0
_C5667: edgepairs_((48,_49),_(44,_45)) + edgepairs_((48,_49),_(45,_46))
 - nodepairs_(48,_45) - nodepairs_(49,_45) <= 0
_C5668: edgepairs_((49,_50),_(44,_45)) + edgepairs_((49,_50),_(45,_46))
 - nodepairs_(49,_45) - nodepairs_(50,_45) <= 0
_C5669: edgepairs_((50,_51),_(44,_45)) + edgepairs_((50,_51),_(45,_46))
 - nodepairs_(50,_45) - nodepairs_(51,_45) <= 0
_C567: edgepairs_((5,_6),_(23,_24)) + edgepairs_((6,_7),_(23,_24))
 - nodepairs_(6,_23) - nodepairs_(6,_24) <= 0
_C5670: edgepairs_((51,_52),_(44,_45)) + edgepairs_((51,_52),_(45,_46))
 - nodepairs_(51,_45) - nodepairs_(52,_45) <= 0
_C5671: edgepairs_((52,_53),_(44,_45)) + edgepairs_((52,_53),_(45,_46))
 - nodepairs_(52,_45) - nodepairs_(53,_45) <= 0
_C5672: edgepairs_((53,_54),_(44,_45)) + edgepairs_((53,_54),_(45,_46))
 - nodepairs_(53,_45) - nodepairs_(54,_45) <= 0
_C5673: edgepairs_((0,_1),_(45,_46)) + edgepairs_((0,_1),_(46,_47))
 - nodepairs_(0,_46) - nodepairs_(1,_46) <= 0
_C5674: edgepairs_((0,_26),_(45,_46)) + edgepairs_((0,_26),_(46,_47))
 - nodepairs_(0,_46) - nodepairs_(26,_46) <= 0
_C5675: - nodepairs_(0,_46) <= 0
_C5676: - nodepairs_(1,_46) <= 0
_C5677: - nodepairs_(3,_46) <= 0
_C5678: - nodepairs_(3,_46) <= 0
_C5679: edgepairs_((3,_5),_(45,_46)) + edgepairs_((3,_5),_(46,_47))
 - nodepairs_(3,_46) - nodepairs_(5,_46) <= 0
_C568: edgepairs_((5,_6),_(24,_25)) + edgepairs_((6,_7),_(24,_25))
 - nodepairs_(6,_24) - nodepairs_(6,_25) <= 0
_C5680: edgepairs_((5,_6),_(45,_46)) + edgepairs_((5,_6),_(46,_47))
 - nodepairs_(5,_46) - nodepairs_(6,_46) <= 0
_C5681: edgepairs_((6,_7),_(45,_46)) + edgepairs_((6,_7),_(46,_47))
 - nodepairs_(6,_46) - nodepairs_(7,_46) <= 0
_C5682: edgepairs_((7,_8),_(45,_46)) + edgepairs_((7,_8),_(46,_47))
 - nodepairs_(7,_46) - nodepairs_(8,_46) <= 0
_C5683: edgepairs_((8,_9),_(45,_46)) + edgepairs_((8,_9),_(46,_47))
 - nodepairs_(8,_46) - nodepairs_(9,_46) <= 0
_C5684: edgepairs_((9,_10),_(45,_46)) + edgepairs_((9,_10),_(46,_47))
 - nodepairs_(10,_46) - nodepairs_(9,_46) <= 0
_C5685: edgepairs_((10,_11),_(45,_46)) + edgepairs_((10,_11),_(46,_47))
 - nodepairs_(10,_46) - nodepairs_(11,_46) <= 0
_C5686: edgepairs_((11,_12),_(45,_46)) + edgepairs_((11,_12),_(46,_47))
 - nodepairs_(11,_46) - nodepairs_(12,_46) <= 0
_C5687: edgepairs_((12,_13),_(45,_46)) + edgepairs_((12,_13),_(46,_47))
 - nodepairs_(12,_46) - nodepairs_(13,_46) <= 0
_C5688: edgepairs_((13,_14),_(45,_46)) + edgepairs_((13,_14),_(46,_47))
 - nodepairs_(13,_46) - nodepairs_(14,_46) <= 0
_C5689: edgepairs_((14,_15),_(45,_46)) + edgepairs_((14,_15),_(46,_47))
 - nodepairs_(14,_46) - nodepairs_(15,_46) <= 0
_C569: edgepairs_((5,_6),_(25,_26)) + edgepairs_((6,_7),_(25,_26))
 - nodepairs_(6,_25) - nodepairs_(6,_26) <= 0
_C5690: edgepairs_((15,_16),_(45,_46)) + edgepairs_((15,_16),_(46,_47))
 - nodepairs_(15,_46) - nodepairs_(16,_46) <= 0
_C5691: edgepairs_((16,_17),_(45,_46)) + edgepairs_((16,_17),_(46,_47))
 - nodepairs_(16,_46) - nodepairs_(17,_46) <= 0
_C5692: edgepairs_((17,_18),_(45,_46)) + edgepairs_((17,_18),_(46,_47))
 - nodepairs_(17,_46) - nodepairs_(18,_46) <= 0
_C5693: edgepairs_((18,_19),_(45,_46)) + edgepairs_((18,_19),_(46,_47))
 - nodepairs_(18,_46) - nodepairs_(19,_46) <= 0
_C5694: edgepairs_((19,_20),_(45,_46)) + edgepairs_((19,_20),_(46,_47))
 - nodepairs_(19,_46) - nodepairs_(20,_46) <= 0
_C5695: edgepairs_((20,_21),_(45,_46)) + edgepairs_((20,_21),_(46,_47))
 - nodepairs_(20,_46) - nodepairs_(21,_46) <= 0
_C5696: edgepairs_((21,_22),_(45,_46)) + edgepairs_((21,_22),_(46,_47))
 - nodepairs_(21,_46) - nodepairs_(22,_46) <= 0
_C5697: edgepairs_((22,_23),_(45,_46)) + edgepairs_((22,_23),_(46,_47))
 - nodepairs_(22,_46) - nodepairs_(23,_46) <= 0
_C5698: edgepairs_((23,_24),_(45,_46)) + edgepairs_((23,_24),_(46,_47))
 - nodepairs_(23,_46) - nodepairs_(24,_46) <= 0
_C5699: edgepairs_((23,_25),_(45,_46)) + edgepairs_((23,_25),_(46,_47))
 - nodepairs_(23,_46) - nodepairs_(25,_46) <= 0
_C57: nodepairs_(0,_1) + nodepairs_(1,_1) + nodepairs_(10,_1)
 + nodepairs_(11,_1) + nodepairs_(12,_1) + nodepairs_(13,_1)
 + nodepairs_(14,_1) + nodepairs_(15,_1) + nodepairs_(16,_1)
 + nodepairs_(17,_1) + nodepairs_(18,_1) + nodepairs_(19,_1)
 + nodepairs_(20,_1) + nodepairs_(21,_1) + nodepairs_(22,_1)
 + nodepairs_(23,_1) + nodepairs_(24,_1) + nodepairs_(25,_1)
 + nodepairs_(26,_1) + nodepairs_(28,_1) + nodepairs_(3,_1)
 + nodepairs_(30,_1) + nodepairs_(31,_1) + nodepairs_(32,_1)
 + nodepairs_(33,_1) + nodepairs_(34,_1) + nodepairs_(35,_1)
 + nodepairs_(36,_1) + nodepairs_(37,_1) + nodepairs_(38,_1)
 + nodepairs_(39,_1) + nodepairs_(40,_1) + nodepairs_(41,_1)
 + nodepairs_(42,_1) + nodepairs_(44,_1) + nodepairs_(46,_1)
 + nodepairs_(47,_1) + nodepairs_(48,_1) + nodepairs_(49,_1)
 + nodepairs_(5,_1) + nodepairs_(50,_1) + nodepairs_(51,_1)
 + nodepairs_(52,_1) + nodepairs_(53,_1) + nodepairs_(54,_1)
 + nodepairs_(6,_1) + nodepairs_(7,_1) + nodepairs_(8,_1) + nodepairs_(9,_1)
 <= 1
_C570: edgepairs_((5,_6),_(26,_27)) + edgepairs_((6,_7),_(26,_27))
 - nodepairs_(6,_26) - nodepairs_(6,_27) <= 0
_C5700: - nodepairs_(26,_46) <= 0
_C5701: - nodepairs_(28,_46) <= 0
_C5702: - nodepairs_(28,_46) <= 0
_C5703: edgepairs_((28,_30),_(45,_46)) + edgepairs_((28,_30),_(46,_47))
 - nodepairs_(28,_46) - nodepairs_(30,_46) <= 0
_C5704: edgepairs_((30,_31),_(45,_46)) + edgepairs_((30,_31),_(46,_47))
 - nodepairs_(30,_46) - nodepairs_(31,_46) <= 0
_C5705: edgepairs_((31,_32),_(45,_46)) + edgepairs_((31,_32),_(46,_47))
 - nodepairs_(31,_46) - nodepairs_(32,_46) <= 0
_C5706: edgepairs_((32,_33),_(45,_46)) + edgepairs_((32,_33),_(46,_47))
 - nodepairs_(32,_46) - nodepairs_(33,_46) <= 0
_C5707: edgepairs_((33,_34),_(45,_46)) + edgepairs_((33,_34),_(46,_47))
 - nodepairs_(33,_46) - nodepairs_(34,_46) <= 0
_C5708: edgepairs_((34,_35),_(45,_46)) + edgepairs_((34,_35),_(46,_47))
 - nodepairs_(34,_46) - nodepairs_(35,_46) <= 0
_C5709: edgepairs_((35,_36),_(45,_46)) + edgepairs_((35,_36),_(46,_47))
 - nodepairs_(35,_46) - nodepairs_(36,_46) <= 0
_C571: edgepairs_((5,_6),_(27,_28)) + edgepairs_((6,_7),_(27,_28))
 - nodepairs_(6,_27) - nodepairs_(6,_28) <= 0
_C5710: edgepairs_((36,_37),_(45,_46)) + edgepairs_((36,_37),_(46,_47))
 - nodepairs_(36,_46) - nodepairs_(37,_46) <= 0
_C5711: edgepairs_((37,_38),_(45,_46)) + edgepairs_((37,_38),_(46,_47))
 - nodepairs_(37,_46) - nodepairs_(38,_46) <= 0
_C5712: edgepairs_((38,_39),_(45,_46)) + edgepairs_((38,_39),_(46,_47))
 - nodepairs_(38,_46) - nodepairs_(39,_46) <= 0
_C5713: edgepairs_((39,_40),_(45,_46)) + edgepairs_((39,_40),_(46,_47))
 - nodepairs_(39,_46) - nodepairs_(40,_46) <= 0
_C5714: edgepairs_((40,_41),_(45,_46)) + edgepairs_((40,_41),_(46,_47))
 - nodepairs_(40,_46) - nodepairs_(41,_46) <= 0
_C5715: edgepairs_((40,_42),_(45,_46)) + edgepairs_((40,_42),_(46,_47))
 - nodepairs_(40,_46) - nodepairs_(42,_46) <= 0
_C5716: - nodepairs_(44,_46) <= 0
_C5717: - nodepairs_(44,_46) <= 0
_C5718: edgepairs_((44,_46),_(45,_46)) + edgepairs_((44,_46),_(46,_47))
 - nodepairs_(44,_46) - nodepairs_(46,_46) <= 0
_C5719: edgepairs_((46,_47),_(45,_46)) + edgepairs_((46,_47),_(46,_47))
 - nodepairs_(46,_46) - nodepairs_(47,_46) <= 0
_C572: edgepairs_((5,_6),_(28,_29)) + edgepairs_((6,_7),_(28,_29))
 - nodepairs_(6,_28) - nodepairs_(6,_29) <= 0
_C5720: edgepairs_((47,_48),_(45,_46)) + edgepairs_((47,_48),_(46,_47))
 - nodepairs_(47,_46) - nodepairs_(48,_46) <= 0
_C5721: edgepairs_((48,_49),_(45,_46)) + edgepairs_((48,_49),_(46,_47))
 - nodepairs_(48,_46) - nodepairs_(49,_46) <= 0
_C5722: edgepairs_((49,_50),_(45,_46)) + edgepairs_((49,_50),_(46,_47))
 - nodepairs_(49,_46) - nodepairs_(50,_46) <= 0
_C5723: edgepairs_((50,_51),_(45,_46)) + edgepairs_((50,_51),_(46,_47))
 - nodepairs_(50,_46) - nodepairs_(51,_46) <= 0
_C5724: edgepairs_((51,_52),_(45,_46)) + edgepairs_((51,_52),_(46,_47))
 - nodepairs_(51,_46) - nodepairs_(52,_46) <= 0
_C5725: edgepairs_((52,_53),_(45,_46)) + edgepairs_((52,_53),_(46,_47))
 - nodepairs_(52,_46) - nodepairs_(53,_46) <= 0
_C5726: edgepairs_((53,_54),_(45,_46)) + edgepairs_((53,_54),_(46,_47))
 - nodepairs_(53,_46) - nodepairs_(54,_46) <= 0
_C5727: edgepairs_((0,_1),_(46,_47)) + edgepairs_((0,_1),_(47,_48))
 - nodepairs_(0,_47) - nodepairs_(1,_47) <= 0
_C5728: edgepairs_((0,_26),_(46,_47)) + edgepairs_((0,_26),_(47,_48))
 - nodepairs_(0,_47) - nodepairs_(26,_47) <= 0
_C5729: - nodepairs_(0,_47) <= 0
_C573: edgepairs_((5,_6),_(29,_30)) + edgepairs_((6,_7),_(29,_30))
 - nodepairs_(6,_29) - nodepairs_(6,_30) <= 0
_C5730: - nodepairs_(1,_47) <= 0
_C5731: - nodepairs_(3,_47) <= 0
_C5732: - nodepairs_(3,_47) <= 0
_C5733: edgepairs_((3,_5),_(46,_47)) + edgepairs_((3,_5),_(47,_48))
 - nodepairs_(3,_47) - nodepairs_(5,_47) <= 0
_C5734: edgepairs_((5,_6),_(46,_47)) + edgepairs_((5,_6),_(47,_48))
 - nodepairs_(5,_47) - nodepairs_(6,_47) <= 0
_C5735: edgepairs_((6,_7),_(46,_47)) + edgepairs_((6,_7),_(47,_48))
 - nodepairs_(6,_47) - nodepairs_(7,_47) <= 0
_C5736: edgepairs_((7,_8),_(46,_47)) + edgepairs_((7,_8),_(47,_48))
 - nodepairs_(7,_47) - nodepairs_(8,_47) <= 0
_C5737: edgepairs_((8,_9),_(46,_47)) + edgepairs_((8,_9),_(47,_48))
 - nodepairs_(8,_47) - nodepairs_(9,_47) <= 0
_C5738: edgepairs_((9,_10),_(46,_47)) + edgepairs_((9,_10),_(47,_48))
 - nodepairs_(10,_47) - nodepairs_(9,_47) <= 0
_C5739: edgepairs_((10,_11),_(46,_47)) + edgepairs_((10,_11),_(47,_48))
 - nodepairs_(10,_47) - nodepairs_(11,_47) <= 0
_C574: edgepairs_((5,_6),_(30,_31)) + edgepairs_((6,_7),_(30,_31))
 - nodepairs_(6,_30) - nodepairs_(6,_31) <= 0
_C5740: edgepairs_((11,_12),_(46,_47)) + edgepairs_((11,_12),_(47,_48))
 - nodepairs_(11,_47) - nodepairs_(12,_47) <= 0
_C5741: edgepairs_((12,_13),_(46,_47)) + edgepairs_((12,_13),_(47,_48))
 - nodepairs_(12,_47) - nodepairs_(13,_47) <= 0
_C5742: edgepairs_((13,_14),_(46,_47)) + edgepairs_((13,_14),_(47,_48))
 - nodepairs_(13,_47) - nodepairs_(14,_47) <= 0
_C5743: edgepairs_((14,_15),_(46,_47)) + edgepairs_((14,_15),_(47,_48))
 - nodepairs_(14,_47) - nodepairs_(15,_47) <= 0
_C5744: edgepairs_((15,_16),_(46,_47)) + edgepairs_((15,_16),_(47,_48))
 - nodepairs_(15,_47) - nodepairs_(16,_47) <= 0
_C5745: edgepairs_((16,_17),_(46,_47)) + edgepairs_((16,_17),_(47,_48))
 - nodepairs_(16,_47) - nodepairs_(17,_47) <= 0
_C5746: edgepairs_((17,_18),_(46,_47)) + edgepairs_((17,_18),_(47,_48))
 - nodepairs_(17,_47) - nodepairs_(18,_47) <= 0
_C5747: edgepairs_((18,_19),_(46,_47)) + edgepairs_((18,_19),_(47,_48))
 - nodepairs_(18,_47) - nodepairs_(19,_47) <= 0
_C5748: edgepairs_((19,_20),_(46,_47)) + edgepairs_((19,_20),_(47,_48))
 - nodepairs_(19,_47) - nodepairs_(20,_47) <= 0
_C5749: edgepairs_((20,_21),_(46,_47)) + edgepairs_((20,_21),_(47,_48))
 - nodepairs_(20,_47) - nodepairs_(21,_47) <= 0
_C575: edgepairs_((5,_6),_(31,_32)) + edgepairs_((6,_7),_(31,_32))
 - nodepairs_(6,_31) - nodepairs_(6,_32) <= 0
_C5750: edgepairs_((21,_22),_(46,_47)) + edgepairs_((21,_22),_(47,_48))
 - nodepairs_(21,_47) - nodepairs_(22,_47) <= 0
_C5751: edgepairs_((22,_23),_(46,_47)) + edgepairs_((22,_23),_(47,_48))
 - nodepairs_(22,_47) - nodepairs_(23,_47) <= 0
_C5752: edgepairs_((23,_24),_(46,_47)) + edgepairs_((23,_24),_(47,_48))
 - nodepairs_(23,_47) - nodepairs_(24,_47) <= 0
_C5753: edgepairs_((23,_25),_(46,_47)) + edgepairs_((23,_25),_(47,_48))
 - nodepairs_(23,_47) - nodepairs_(25,_47) <= 0
_C5754: - nodepairs_(26,_47) <= 0
_C5755: - nodepairs_(28,_47) <= 0
_C5756: - nodepairs_(28,_47) <= 0
_C5757: edgepairs_((28,_30),_(46,_47)) + edgepairs_((28,_30),_(47,_48))
 - nodepairs_(28,_47) - nodepairs_(30,_47) <= 0
_C5758: edgepairs_((30,_31),_(46,_47)) + edgepairs_((30,_31),_(47,_48))
 - nodepairs_(30,_47) - nodepairs_(31,_47) <= 0
_C5759: edgepairs_((31,_32),_(46,_47)) + edgepairs_((31,_32),_(47,_48))
 - nodepairs_(31,_47) - nodepairs_(32,_47) <= 0
_C576: edgepairs_((5,_6),_(32,_33)) + edgepairs_((6,_7),_(32,_33))
 - nodepairs_(6,_32) - nodepairs_(6,_33) <= 0
_C5760: edgepairs_((32,_33),_(46,_47)) + edgepairs_((32,_33),_(47,_48))
 - nodepairs_(32,_47) - nodepairs_(33,_47) <= 0
_C5761: edgepairs_((33,_34),_(46,_47)) + edgepairs_((33,_34),_(47,_48))
 - nodepairs_(33,_47) - nodepairs_(34,_47) <= 0
_C5762: edgepairs_((34,_35),_(46,_47)) + edgepairs_((34,_35),_(47,_48))
 - nodepairs_(34,_47) - nodepairs_(35,_47) <= 0
_C5763: edgepairs_((35,_36),_(46,_47)) + edgepairs_((35,_36),_(47,_48))
 - nodepairs_(35,_47) - nodepairs_(36,_47) <= 0
_C5764: edgepairs_((36,_37),_(46,_47)) + edgepairs_((36,_37),_(47,_48))
 - nodepairs_(36,_47) - nodepairs_(37,_47) <= 0
_C5765: edgepairs_((37,_38),_(46,_47)) + edgepairs_((37,_38),_(47,_48))
 - nodepairs_(37,_47) - nodepairs_(38,_47) <= 0
_C5766: edgepairs_((38,_39),_(46,_47)) + edgepairs_((38,_39),_(47,_48))
 - nodepairs_(38,_47) - nodepairs_(39,_47) <= 0
_C5767: edgepairs_((39,_40),_(46,_47)) + edgepairs_((39,_40),_(47,_48))
 - nodepairs_(39,_47) - nodepairs_(40,_47) <= 0
_C5768: edgepairs_((40,_41),_(46,_47)) + edgepairs_((40,_41),_(47,_48))
 - nodepairs_(40,_47) - nodepairs_(41,_47) <= 0
_C5769: edgepairs_((40,_42),_(46,_47)) + edgepairs_((40,_42),_(47,_48))
 - nodepairs_(40,_47) - nodepairs_(42,_47) <= 0
_C577: edgepairs_((5,_6),_(33,_34)) + edgepairs_((6,_7),_(33,_34))
 - nodepairs_(6,_33) - nodepairs_(6,_34) <= 0
_C5770: - nodepairs_(44,_47) <= 0
_C5771: - nodepairs_(44,_47) <= 0
_C5772: edgepairs_((44,_46),_(46,_47)) + edgepairs_((44,_46),_(47,_48))
 - nodepairs_(44,_47) - nodepairs_(46,_47) <= 0
_C5773: edgepairs_((46,_47),_(46,_47)) + edgepairs_((46,_47),_(47,_48))
 - nodepairs_(46,_47) - nodepairs_(47,_47) <= 0
_C5774: edgepairs_((47,_48),_(46,_47)) + edgepairs_((47,_48),_(47,_48))
 - nodepairs_(47,_47) - nodepairs_(48,_47) <= 0
_C5775: edgepairs_((48,_49),_(46,_47)) + edgepairs_((48,_49),_(47,_48))
 - nodepairs_(48,_47) - nodepairs_(49,_47) <= 0
_C5776: edgepairs_((49,_50),_(46,_47)) + edgepairs_((49,_50),_(47,_48))
 - nodepairs_(49,_47) - nodepairs_(50,_47) <= 0
_C5777: edgepairs_((50,_51),_(46,_47)) + edgepairs_((50,_51),_(47,_48))
 - nodepairs_(50,_47) - nodepairs_(51,_47) <= 0
_C5778: edgepairs_((51,_52),_(46,_47)) + edgepairs_((51,_52),_(47,_48))
 - nodepairs_(51,_47) - nodepairs_(52,_47) <= 0
_C5779: edgepairs_((52,_53),_(46,_47)) + edgepairs_((52,_53),_(47,_48))
 - nodepairs_(52,_47) - nodepairs_(53,_47) <= 0
_C578: edgepairs_((5,_6),_(34,_35)) + edgepairs_((6,_7),_(34,_35))
 - nodepairs_(6,_34) - nodepairs_(6,_35) <= 0
_C5780: edgepairs_((53,_54),_(46,_47)) + edgepairs_((53,_54),_(47,_48))
 - nodepairs_(53,_47) - nodepairs_(54,_47) <= 0
_C5781: edgepairs_((0,_1),_(47,_48)) + edgepairs_((0,_1),_(48,_49))
 - nodepairs_(0,_48) - nodepairs_(1,_48) <= 0
_C5782: edgepairs_((0,_26),_(47,_48)) + edgepairs_((0,_26),_(48,_49))
 - nodepairs_(0,_48) - nodepairs_(26,_48) <= 0
_C5783: - nodepairs_(0,_48) <= 0
_C5784: - nodepairs_(1,_48) <= 0
_C5785: - nodepairs_(3,_48) <= 0
_C5786: - nodepairs_(3,_48) <= 0
_C5787: edgepairs_((3,_5),_(47,_48)) + edgepairs_((3,_5),_(48,_49))
 - nodepairs_(3,_48) - nodepairs_(5,_48) <= 0
_C5788: edgepairs_((5,_6),_(47,_48)) + edgepairs_((5,_6),_(48,_49))
 - nodepairs_(5,_48) - nodepairs_(6,_48) <= 0
_C5789: edgepairs_((6,_7),_(47,_48)) + edgepairs_((6,_7),_(48,_49))
 - nodepairs_(6,_48) - nodepairs_(7,_48) <= 0
_C579: edgepairs_((5,_6),_(35,_36)) + edgepairs_((6,_7),_(35,_36))
 - nodepairs_(6,_35) - nodepairs_(6,_36) <= 0
_C5790: edgepairs_((7,_8),_(47,_48)) + edgepairs_((7,_8),_(48,_49))
 - nodepairs_(7,_48) - nodepairs_(8,_48) <= 0
_C5791: edgepairs_((8,_9),_(47,_48)) + edgepairs_((8,_9),_(48,_49))
 - nodepairs_(8,_48) - nodepairs_(9,_48) <= 0
_C5792: edgepairs_((9,_10),_(47,_48)) + edgepairs_((9,_10),_(48,_49))
 - nodepairs_(10,_48) - nodepairs_(9,_48) <= 0
_C5793: edgepairs_((10,_11),_(47,_48)) + edgepairs_((10,_11),_(48,_49))
 - nodepairs_(10,_48) - nodepairs_(11,_48) <= 0
_C5794: edgepairs_((11,_12),_(47,_48)) + edgepairs_((11,_12),_(48,_49))
 - nodepairs_(11,_48) - nodepairs_(12,_48) <= 0
_C5795: edgepairs_((12,_13),_(47,_48)) + edgepairs_((12,_13),_(48,_49))
 - nodepairs_(12,_48) - nodepairs_(13,_48) <= 0
_C5796: edgepairs_((13,_14),_(47,_48)) + edgepairs_((13,_14),_(48,_49))
 - nodepairs_(13,_48) - nodepairs_(14,_48) <= 0
_C5797: edgepairs_((14,_15),_(47,_48)) + edgepairs_((14,_15),_(48,_49))
 - nodepairs_(14,_48) - nodepairs_(15,_48) <= 0
_C5798: edgepairs_((15,_16),_(47,_48)) + edgepairs_((15,_16),_(48,_49))
 - nodepairs_(15,_48) - nodepairs_(16,_48) <= 0
_C5799: edgepairs_((16,_17),_(47,_48)) + edgepairs_((16,_17),_(48,_49))
 - nodepairs_(16,_48) - nodepairs_(17,_48) <= 0
_C58: nodepairs_(2,_2) + nodepairs_(27,_2) + nodepairs_(29,_2)
 + nodepairs_(4,_2) + nodepairs_(43,_2) + nodepairs_(45,_2) <= 1
_C580: edgepairs_((5,_6),_(36,_37)) + edgepairs_((6,_7),_(36,_37))
 - nodepairs_(6,_36) - nodepairs_(6,_37) <= 0
_C5800: edgepairs_((17,_18),_(47,_48)) + edgepairs_((17,_18),_(48,_49))
 - nodepairs_(17,_48) - nodepairs_(18,_48) <= 0
_C5801: edgepairs_((18,_19),_(47,_48)) + edgepairs_((18,_19),_(48,_49))
 - nodepairs_(18,_48) - nodepairs_(19,_48) <= 0
_C5802: edgepairs_((19,_20),_(47,_48)) + edgepairs_((19,_20),_(48,_49))
 - nodepairs_(19,_48) - nodepairs_(20,_48) <= 0
_C5803: edgepairs_((20,_21),_(47,_48)) + edgepairs_((20,_21),_(48,_49))
 - nodepairs_(20,_48) - nodepairs_(21,_48) <= 0
_C5804: edgepairs_((21,_22),_(47,_48)) + edgepairs_((21,_22),_(48,_49))
 - nodepairs_(21,_48) - nodepairs_(22,_48) <= 0
_C5805: edgepairs_((22,_23),_(47,_48)) + edgepairs_((22,_23),_(48,_49))
 - nodepairs_(22,_48) - nodepairs_(23,_48) <= 0
_C5806: edgepairs_((23,_24),_(47,_48)) + edgepairs_((23,_24),_(48,_49))
 - nodepairs_(23,_48) - nodepairs_(24,_48) <= 0
_C5807: edgepairs_((23,_25),_(47,_48)) + edgepairs_((23,_25),_(48,_49))
 - nodepairs_(23,_48) - nodepairs_(25,_48) <= 0
_C5808: - nodepairs_(26,_48) <= 0
_C5809: - nodepairs_(28,_48) <= 0
_C581: edgepairs_((5,_6),_(37,_38)) + edgepairs_((6,_7),_(37,_38))
 - nodepairs_(6,_37) - nodepairs_(6,_38) <= 0
_C5810: - nodepairs_(28,_48) <= 0
_C5811: edgepairs_((28,_30),_(47,_48)) + edgepairs_((28,_30),_(48,_49))
 - nodepairs_(28,_48) - nodepairs_(30,_48) <= 0
_C5812: edgepairs_((30,_31),_(47,_48)) + edgepairs_((30,_31),_(48,_49))
 - nodepairs_(30,_48) - nodepairs_(31,_48) <= 0
_C5813: edgepairs_((31,_32),_(47,_48)) + edgepairs_((31,_32),_(48,_49))
 - nodepairs_(31,_48) - nodepairs_(32,_48) <= 0
_C5814: edgepairs_((32,_33),_(47,_48)) + edgepairs_((32,_33),_(48,_49))
 - nodepairs_(32,_48) - nodepairs_(33,_48) <= 0
_C5815: edgepairs_((33,_34),_(47,_48)) + edgepairs_((33,_34),_(48,_49))
 - nodepairs_(33,_48) - nodepairs_(34,_48) <= 0
_C5816: edgepairs_((34,_35),_(47,_48)) + edgepairs_((34,_35),_(48,_49))
 - nodepairs_(34,_48) - nodepairs_(35,_48) <= 0
_C5817: edgepairs_((35,_36),_(47,_48)) + edgepairs_((35,_36),_(48,_49))
 - nodepairs_(35,_48) - nodepairs_(36,_48) <= 0
_C5818: edgepairs_((36,_37),_(47,_48)) + edgepairs_((36,_37),_(48,_49))
 - nodepairs_(36,_48) - nodepairs_(37,_48) <= 0
_C5819: edgepairs_((37,_38),_(47,_48)) + edgepairs_((37,_38),_(48,_49))
 - nodepairs_(37,_48) - nodepairs_(38,_48) <= 0
_C582: edgepairs_((5,_6),_(37,_39)) + edgepairs_((6,_7),_(37,_39))
 - nodepairs_(6,_37) - nodepairs_(6,_39) <= 0
_C5820: edgepairs_((38,_39),_(47,_48)) + edgepairs_((38,_39),_(48,_49))
 - nodepairs_(38,_48) - nodepairs_(39,_48) <= 0
_C5821: edgepairs_((39,_40),_(47,_48)) + edgepairs_((39,_40),_(48,_49))
 - nodepairs_(39,_48) - nodepairs_(40,_48) <= 0
_C5822: edgepairs_((40,_41),_(47,_48)) + edgepairs_((40,_41),_(48,_49))
 - nodepairs_(40,_48) - nodepairs_(41,_48) <= 0
_C5823: edgepairs_((40,_42),_(47,_48)) + edgepairs_((40,_42),_(48,_49))
 - nodepairs_(40,_48) - nodepairs_(42,_48) <= 0
_C5824: - nodepairs_(44,_48) <= 0
_C5825: - nodepairs_(44,_48) <= 0
_C5826: edgepairs_((44,_46),_(47,_48)) + edgepairs_((44,_46),_(48,_49))
 - nodepairs_(44,_48) - nodepairs_(46,_48) <= 0
_C5827: edgepairs_((46,_47),_(47,_48)) + edgepairs_((46,_47),_(48,_49))
 - nodepairs_(46,_48) - nodepairs_(47,_48) <= 0
_C5828: edgepairs_((47,_48),_(47,_48)) + edgepairs_((47,_48),_(48,_49))
 - nodepairs_(47,_48) - nodepairs_(48,_48) <= 0
_C5829: edgepairs_((48,_49),_(47,_48)) + edgepairs_((48,_49),_(48,_49))
 - nodepairs_(48,_48) - nodepairs_(49,_48) <= 0
_C583: edgepairs_((5,_6),_(39,_40)) + edgepairs_((6,_7),_(39,_40))
 - nodepairs_(6,_39) - nodepairs_(6,_40) <= 0
_C5830: edgepairs_((49,_50),_(47,_48)) + edgepairs_((49,_50),_(48,_49))
 - nodepairs_(49,_48) - nodepairs_(50,_48) <= 0
_C5831: edgepairs_((50,_51),_(47,_48)) + edgepairs_((50,_51),_(48,_49))
 - nodepairs_(50,_48) - nodepairs_(51,_48) <= 0
_C5832: edgepairs_((51,_52),_(47,_48)) + edgepairs_((51,_52),_(48,_49))
 - nodepairs_(51,_48) - nodepairs_(52,_48) <= 0
_C5833: edgepairs_((52,_53),_(47,_48)) + edgepairs_((52,_53),_(48,_49))
 - nodepairs_(52,_48) - nodepairs_(53,_48) <= 0
_C5834: edgepairs_((53,_54),_(47,_48)) + edgepairs_((53,_54),_(48,_49))
 - nodepairs_(53,_48) - nodepairs_(54,_48) <= 0
_C5835: edgepairs_((0,_1),_(48,_49)) + edgepairs_((0,_1),_(49,_50))
 - nodepairs_(0,_49) - nodepairs_(1,_49) <= 0
_C5836: edgepairs_((0,_26),_(48,_49)) + edgepairs_((0,_26),_(49,_50))
 - nodepairs_(0,_49) - nodepairs_(26,_49) <= 0
_C5837: - nodepairs_(0,_49) <= 0
_C5838: - nodepairs_(1,_49) <= 0
_C5839: - nodepairs_(3,_49) <= 0
_C584: - nodepairs_(6,_42) <= 0
_C5840: - nodepairs_(3,_49) <= 0
_C5841: edgepairs_((3,_5),_(48,_49)) + edgepairs_((3,_5),_(49,_50))
 - nodepairs_(3,_49) - nodepairs_(5,_49) <= 0
_C5842: edgepairs_((5,_6),_(48,_49)) + edgepairs_((5,_6),_(49,_50))
 - nodepairs_(5,_49) - nodepairs_(6,_49) <= 0
_C5843: edgepairs_((6,_7),_(48,_49)) + edgepairs_((6,_7),_(49,_50))
 - nodepairs_(6,_49) - nodepairs_(7,_49) <= 0
_C5844: edgepairs_((7,_8),_(48,_49)) + edgepairs_((7,_8),_(49,_50))
 - nodepairs_(7,_49) - nodepairs_(8,_49) <= 0
_C5845: edgepairs_((8,_9),_(48,_49)) + edgepairs_((8,_9),_(49,_50))
 - nodepairs_(8,_49) - nodepairs_(9,_49) <= 0
_C5846: edgepairs_((9,_10),_(48,_49)) + edgepairs_((9,_10),_(49,_50))
 - nodepairs_(10,_49) - nodepairs_(9,_49) <= 0
_C5847: edgepairs_((10,_11),_(48,_49)) + edgepairs_((10,_11),_(49,_50))
 - nodepairs_(10,_49) - nodepairs_(11,_49) <= 0
_C5848: edgepairs_((11,_12),_(48,_49)) + edgepairs_((11,_12),_(49,_50))
 - nodepairs_(11,_49) - nodepairs_(12,_49) <= 0
_C5849: edgepairs_((12,_13),_(48,_49)) + edgepairs_((12,_13),_(49,_50))
 - nodepairs_(12,_49) - nodepairs_(13,_49) <= 0
_C585: - nodepairs_(6,_42) <= 0
_C5850: edgepairs_((13,_14),_(48,_49)) + edgepairs_((13,_14),_(49,_50))
 - nodepairs_(13,_49) - nodepairs_(14,_49) <= 0
_C5851: edgepairs_((14,_15),_(48,_49)) + edgepairs_((14,_15),_(49,_50))
 - nodepairs_(14,_49) - nodepairs_(15,_49) <= 0
_C5852: edgepairs_((15,_16),_(48,_49)) + edgepairs_((15,_16),_(49,_50))
 - nodepairs_(15,_49) - nodepairs_(16,_49) <= 0
_C5853: edgepairs_((16,_17),_(48,_49)) + edgepairs_((16,_17),_(49,_50))
 - nodepairs_(16,_49) - nodepairs_(17,_49) <= 0
_C5854: edgepairs_((17,_18),_(48,_49)) + edgepairs_((17,_18),_(49,_50))
 - nodepairs_(17,_49) - nodepairs_(18,_49) <= 0
_C5855: edgepairs_((18,_19),_(48,_49)) + edgepairs_((18,_19),_(49,_50))
 - nodepairs_(18,_49) - nodepairs_(19,_49) <= 0
_C5856: edgepairs_((19,_20),_(48,_49)) + edgepairs_((19,_20),_(49,_50))
 - nodepairs_(19,_49) - nodepairs_(20,_49) <= 0
_C5857: edgepairs_((20,_21),_(48,_49)) + edgepairs_((20,_21),_(49,_50))
 - nodepairs_(20,_49) - nodepairs_(21,_49) <= 0
_C5858: edgepairs_((21,_22),_(48,_49)) + edgepairs_((21,_22),_(49,_50))
 - nodepairs_(21,_49) - nodepairs_(22,_49) <= 0
_C5859: edgepairs_((22,_23),_(48,_49)) + edgepairs_((22,_23),_(49,_50))
 - nodepairs_(22,_49) - nodepairs_(23,_49) <= 0
_C586: edgepairs_((5,_6),_(42,_44)) + edgepairs_((6,_7),_(42,_44))
 - nodepairs_(6,_42) - nodepairs_(6,_44) <= 0
_C5860: edgepairs_((23,_24),_(48,_49)) + edgepairs_((23,_24),_(49,_50))
 - nodepairs_(23,_49) - nodepairs_(24,_49) <= 0
_C5861: edgepairs_((23,_25),_(48,_49)) + edgepairs_((23,_25),_(49,_50))
 - nodepairs_(23,_49) - nodepairs_(25,_49) <= 0
_C5862: - nodepairs_(26,_49) <= 0
_C5863: - nodepairs_(28,_49) <= 0
_C5864: - nodepairs_(28,_49) <= 0
_C5865: edgepairs_((28,_30),_(48,_49)) + edgepairs_((28,_30),_(49,_50))
 - nodepairs_(28,_49) - nodepairs_(30,_49) <= 0
_C5866: edgepairs_((30,_31),_(48,_49)) + edgepairs_((30,_31),_(49,_50))
 - nodepairs_(30,_49) - nodepairs_(31,_49) <= 0
_C5867: edgepairs_((31,_32),_(48,_49)) + edgepairs_((31,_32),_(49,_50))
 - nodepairs_(31,_49) - nodepairs_(32,_49) <= 0
_C5868: edgepairs_((32,_33),_(48,_49)) + edgepairs_((32,_33),_(49,_50))
 - nodepairs_(32,_49) - nodepairs_(33,_49) <= 0
_C5869: edgepairs_((33,_34),_(48,_49)) + edgepairs_((33,_34),_(49,_50))
 - nodepairs_(33,_49) - nodepairs_(34,_49) <= 0
_C587: edgepairs_((5,_6),_(44,_45)) + edgepairs_((6,_7),_(44,_45))
 - nodepairs_(6,_44) - nodepairs_(6,_45) <= 0
_C5870: edgepairs_((34,_35),_(48,_49)) + edgepairs_((34,_35),_(49,_50))
 - nodepairs_(34,_49) - nodepairs_(35,_49) <= 0
_C5871: edgepairs_((35,_36),_(48,_49)) + edgepairs_((35,_36),_(49,_50))
 - nodepairs_(35,_49) - nodepairs_(36,_49) <= 0
_C5872: edgepairs_((36,_37),_(48,_49)) + edgepairs_((36,_37),_(49,_50))
 - nodepairs_(36,_49) - nodepairs_(37,_49) <= 0
_C5873: edgepairs_((37,_38),_(48,_49)) + edgepairs_((37,_38),_(49,_50))
 - nodepairs_(37,_49) - nodepairs_(38,_49) <= 0
_C5874: edgepairs_((38,_39),_(48,_49)) + edgepairs_((38,_39),_(49,_50))
 - nodepairs_(38,_49) - nodepairs_(39,_49) <= 0
_C5875: edgepairs_((39,_40),_(48,_49)) + edgepairs_((39,_40),_(49,_50))
 - nodepairs_(39,_49) - nodepairs_(40,_49) <= 0
_C5876: edgepairs_((40,_41),_(48,_49)) + edgepairs_((40,_41),_(49,_50))
 - nodepairs_(40,_49) - nodepairs_(41,_49) <= 0
_C5877: edgepairs_((40,_42),_(48,_49)) + edgepairs_((40,_42),_(49,_50))
 - nodepairs_(40,_49) - nodepairs_(42,_49) <= 0
_C5878: - nodepairs_(44,_49) <= 0
_C5879: - nodepairs_(44,_49) <= 0
_C588: edgepairs_((5,_6),_(45,_46)) + edgepairs_((6,_7),_(45,_46))
 - nodepairs_(6,_45) - nodepairs_(6,_46) <= 0
_C5880: edgepairs_((44,_46),_(48,_49)) + edgepairs_((44,_46),_(49,_50))
 - nodepairs_(44,_49) - nodepairs_(46,_49) <= 0
_C5881: edgepairs_((46,_47),_(48,_49)) + edgepairs_((46,_47),_(49,_50))
 - nodepairs_(46,_49) - nodepairs_(47,_49) <= 0
_C5882: edgepairs_((47,_48),_(48,_49)) + edgepairs_((47,_48),_(49,_50))
 - nodepairs_(47,_49) - nodepairs_(48,_49) <= 0
_C5883: edgepairs_((48,_49),_(48,_49)) + edgepairs_((48,_49),_(49,_50))
 - nodepairs_(48,_49) - nodepairs_(49,_49) <= 0
_C5884: edgepairs_((49,_50),_(48,_49)) + edgepairs_((49,_50),_(49,_50))
 - nodepairs_(49,_49) - nodepairs_(50,_49) <= 0
_C5885: edgepairs_((50,_51),_(48,_49)) + edgepairs_((50,_51),_(49,_50))
 - nodepairs_(50,_49) - nodepairs_(51,_49) <= 0
_C5886: edgepairs_((51,_52),_(48,_49)) + edgepairs_((51,_52),_(49,_50))
 - nodepairs_(51,_49) - nodepairs_(52,_49) <= 0
_C5887: edgepairs_((52,_53),_(48,_49)) + edgepairs_((52,_53),_(49,_50))
 - nodepairs_(52,_49) - nodepairs_(53,_49) <= 0
_C5888: edgepairs_((53,_54),_(48,_49)) + edgepairs_((53,_54),_(49,_50))
 - nodepairs_(53,_49) - nodepairs_(54,_49) <= 0
_C5889: edgepairs_((0,_1),_(49,_50)) + edgepairs_((0,_1),_(50,_51))
 - nodepairs_(0,_50) - nodepairs_(1,_50) <= 0
_C589: edgepairs_((5,_6),_(46,_47)) + edgepairs_((6,_7),_(46,_47))
 - nodepairs_(6,_46) - nodepairs_(6,_47) <= 0
_C5890: edgepairs_((0,_26),_(49,_50)) + edgepairs_((0,_26),_(50,_51))
 - nodepairs_(0,_50) - nodepairs_(26,_50) <= 0
_C5891: - nodepairs_(0,_50) <= 0
_C5892: - nodepairs_(1,_50) <= 0
_C5893: - nodepairs_(3,_50) <= 0
_C5894: - nodepairs_(3,_50) <= 0
_C5895: edgepairs_((3,_5),_(49,_50)) + edgepairs_((3,_5),_(50,_51))
 - nodepairs_(3,_50) - nodepairs_(5,_50) <= 0
_C5896: edgepairs_((5,_6),_(49,_50)) + edgepairs_((5,_6),_(50,_51))
 - nodepairs_(5,_50) - nodepairs_(6,_50) <= 0
_C5897: edgepairs_((6,_7),_(49,_50)) + edgepairs_((6,_7),_(50,_51))
 - nodepairs_(6,_50) - nodepairs_(7,_50) <= 0
_C5898: edgepairs_((7,_8),_(49,_50)) + edgepairs_((7,_8),_(50,_51))
 - nodepairs_(7,_50) - nodepairs_(8,_50) <= 0
_C5899: edgepairs_((8,_9),_(49,_50)) + edgepairs_((8,_9),_(50,_51))
 - nodepairs_(8,_50) - nodepairs_(9,_50) <= 0
_C59: nodepairs_(0,_3) + nodepairs_(1,_3) + nodepairs_(10,_3)
 + nodepairs_(11,_3) + nodepairs_(12,_3) + nodepairs_(13,_3)
 + nodepairs_(14,_3) + nodepairs_(15,_3) + nodepairs_(16,_3)
 + nodepairs_(17,_3) + nodepairs_(18,_3) + nodepairs_(19,_3)
 + nodepairs_(20,_3) + nodepairs_(21,_3) + nodepairs_(22,_3)
 + nodepairs_(23,_3) + nodepairs_(24,_3) + nodepairs_(25,_3)
 + nodepairs_(26,_3) + nodepairs_(28,_3) + nodepairs_(3,_3)
 + nodepairs_(30,_3) + nodepairs_(31,_3) + nodepairs_(32,_3)
 + nodepairs_(33,_3) + nodepairs_(34,_3) + nodepairs_(35,_3)
 + nodepairs_(36,_3) + nodepairs_(37,_3) + nodepairs_(38,_3)
 + nodepairs_(39,_3) + nodepairs_(40,_3) + nodepairs_(41,_3)
 + nodepairs_(42,_3) + nodepairs_(44,_3) + nodepairs_(46,_3)
 + nodepairs_(47,_3) + nodepairs_(48,_3) + nodepairs_(49,_3)
 + nodepairs_(5,_3) + nodepairs_(50,_3) + nodepairs_(51,_3)
 + nodepairs_(52,_3) + nodepairs_(53,_3) + nodepairs_(54,_3)
 + nodepairs_(6,_3) + nodepairs_(7,_3) + nodepairs_(8,_3) + nodepairs_(9,_3)
 <= 1
_C590: edgepairs_((5,_6),_(47,_48)) + edgepairs_((6,_7),_(47,_48))
 - nodepairs_(6,_47) - nodepairs_(6,_48) <= 0
_C5900: edgepairs_((9,_10),_(49,_50)) + edgepairs_((9,_10),_(50,_51))
 - nodepairs_(10,_50) - nodepairs_(9,_50) <= 0
_C5901: edgepairs_((10,_11),_(49,_50)) + edgepairs_((10,_11),_(50,_51))
 - nodepairs_(10,_50) - nodepairs_(11,_50) <= 0
_C5902: edgepairs_((11,_12),_(49,_50)) + edgepairs_((11,_12),_(50,_51))
 - nodepairs_(11,_50) - nodepairs_(12,_50) <= 0
_C5903: edgepairs_((12,_13),_(49,_50)) + edgepairs_((12,_13),_(50,_51))
 - nodepairs_(12,_50) - nodepairs_(13,_50) <= 0
_C5904: edgepairs_((13,_14),_(49,_50)) + edgepairs_((13,_14),_(50,_51))
 - nodepairs_(13,_50) - nodepairs_(14,_50) <= 0
_C5905: edgepairs_((14,_15),_(49,_50)) + edgepairs_((14,_15),_(50,_51))
 - nodepairs_(14,_50) - nodepairs_(15,_50) <= 0
_C5906: edgepairs_((15,_16),_(49,_50)) + edgepairs_((15,_16),_(50,_51))
 - nodepairs_(15,_50) - nodepairs_(16,_50) <= 0
_C5907: edgepairs_((16,_17),_(49,_50)) + edgepairs_((16,_17),_(50,_51))
 - nodepairs_(16,_50) - nodepairs_(17,_50) <= 0
_C5908: edgepairs_((17,_18),_(49,_50)) + edgepairs_((17,_18),_(50,_51))
 - nodepairs_(17,_50) - nodepairs_(18,_50) <= 0
_C5909: edgepairs_((18,_19),_(49,_50)) + edgepairs_((18,_19),_(50,_51))
 - nodepairs_(18,_50) - nodepairs_(19,_50) <= 0
_C591: edgepairs_((5,_6),_(48,_49)) + edgepairs_((6,_7),_(48,_49))
 - nodepairs_(6,_48) - nodepairs_(6,_49) <= 0
_C5910: edgepairs_((19,_20),_(49,_50)) + edgepairs_((19,_20),_(50,_51))
 - nodepairs_(19,_50) - nodepairs_(20,_50) <= 0
_C5911: edgepairs_((20,_21),_(49,_50)) + edgepairs_((20,_21),_(50,_51))
 - nodepairs_(20,_50) - nodepairs_(21,_50) <= 0
_C5912: edgepairs_((21,_22),_(49,_50)) + edgepairs_((21,_22),_(50,_51))
 - nodepairs_(21,_50) - nodepairs_(22,_50) <= 0
_C5913: edgepairs_((22,_23),_(49,_50)) + edgepairs_((22,_23),_(50,_51))
 - nodepairs_(22,_50) - nodepairs_(23,_50) <= 0
_C5914: edgepairs_((23,_24),_(49,_50)) + edgepairs_((23,_24),_(50,_51))
 - nodepairs_(23,_50) - nodepairs_(24,_50) <= 0
_C5915: edgepairs_((23,_25),_(49,_50)) + edgepairs_((23,_25),_(50,_51))
 - nodepairs_(23,_50) - nodepairs_(25,_50) <= 0
_C5916: - nodepairs_(26,_50) <= 0
_C5917: - nodepairs_(28,_50) <= 0
_C5918: - nodepairs_(28,_50) <= 0
_C5919: edgepairs_((28,_30),_(49,_50)) + edgepairs_((28,_30),_(50,_51))
 - nodepairs_(28,_50) - nodepairs_(30,_50) <= 0
_C592: edgepairs_((5,_6),_(49,_50)) + edgepairs_((6,_7),_(49,_50))
 - nodepairs_(6,_49) - nodepairs_(6,_50) <= 0
_C5920: edgepairs_((30,_31),_(49,_50)) + edgepairs_((30,_31),_(50,_51))
 - nodepairs_(30,_50) - nodepairs_(31,_50) <= 0
_C5921: edgepairs_((31,_32),_(49,_50)) + edgepairs_((31,_32),_(50,_51))
 - nodepairs_(31,_50) - nodepairs_(32,_50) <= 0
_C5922: edgepairs_((32,_33),_(49,_50)) + edgepairs_((32,_33),_(50,_51))
 - nodepairs_(32,_50) - nodepairs_(33,_50) <= 0
_C5923: edgepairs_((33,_34),_(49,_50)) + edgepairs_((33,_34),_(50,_51))
 - nodepairs_(33,_50) - nodepairs_(34,_50) <= 0
_C5924: edgepairs_((34,_35),_(49,_50)) + edgepairs_((34,_35),_(50,_51))
 - nodepairs_(34,_50) - nodepairs_(35,_50) <= 0
_C5925: edgepairs_((35,_36),_(49,_50)) + edgepairs_((35,_36),_(50,_51))
 - nodepairs_(35,_50) - nodepairs_(36,_50) <= 0
_C5926: edgepairs_((36,_37),_(49,_50)) + edgepairs_((36,_37),_(50,_51))
 - nodepairs_(36,_50) - nodepairs_(37,_50) <= 0
_C5927: edgepairs_((37,_38),_(49,_50)) + edgepairs_((37,_38),_(50,_51))
 - nodepairs_(37,_50) - nodepairs_(38,_50) <= 0
_C5928: edgepairs_((38,_39),_(49,_50)) + edgepairs_((38,_39),_(50,_51))
 - nodepairs_(38,_50) - nodepairs_(39,_50) <= 0
_C5929: edgepairs_((39,_40),_(49,_50)) + edgepairs_((39,_40),_(50,_51))
 - nodepairs_(39,_50) - nodepairs_(40,_50) <= 0
_C593: edgepairs_((5,_6),_(50,_51)) + edgepairs_((6,_7),_(50,_51))
 - nodepairs_(6,_50) - nodepairs_(6,_51) <= 0
_C5930: edgepairs_((40,_41),_(49,_50)) + edgepairs_((40,_41),_(50,_51))
 - nodepairs_(40,_50) - nodepairs_(41,_50) <= 0
_C5931: edgepairs_((40,_42),_(49,_50)) + edgepairs_((40,_42),_(50,_51))
 - nodepairs_(40,_50) - nodepairs_(42,_50) <= 0
_C5932: - nodepairs_(44,_50) <= 0
_C5933: - nodepairs_(44,_50) <= 0
_C5934: edgepairs_((44,_46),_(49,_50)) + edgepairs_((44,_46),_(50,_51))
 - nodepairs_(44,_50) - nodepairs_(46,_50) <= 0
_C5935: edgepairs_((46,_47),_(49,_50)) + edgepairs_((46,_47),_(50,_51))
 - nodepairs_(46,_50) - nodepairs_(47,_50) <= 0
_C5936: edgepairs_((47,_48),_(49,_50)) + edgepairs_((47,_48),_(50,_51))
 - nodepairs_(47,_50) - nodepairs_(48,_50) <= 0
_C5937: edgepairs_((48,_49),_(49,_50)) + edgepairs_((48,_49),_(50,_51))
 - nodepairs_(48,_50) - nodepairs_(49,_50) <= 0
_C5938: edgepairs_((49,_50),_(49,_50)) + edgepairs_((49,_50),_(50,_51))
 - nodepairs_(49,_50) - nodepairs_(50,_50) <= 0
_C5939: edgepairs_((50,_51),_(49,_50)) + edgepairs_((50,_51),_(50,_51))
 - nodepairs_(50,_50) - nodepairs_(51,_50) <= 0
_C594: edgepairs_((5,_6),_(51,_52)) + edgepairs_((6,_7),_(51,_52))
 - nodepairs_(6,_51) - nodepairs_(6,_52) <= 0
_C5940: edgepairs_((51,_52),_(49,_50)) + edgepairs_((51,_52),_(50,_51))
 - nodepairs_(51,_50) - nodepairs_(52,_50) <= 0
_C5941: edgepairs_((52,_53),_(49,_50)) + edgepairs_((52,_53),_(50,_51))
 - nodepairs_(52,_50) - nodepairs_(53,_50) <= 0
_C5942: edgepairs_((53,_54),_(49,_50)) + edgepairs_((53,_54),_(50,_51))
 - nodepairs_(53,_50) - nodepairs_(54,_50) <= 0
_C5943: edgepairs_((0,_1),_(50,_51)) + edgepairs_((0,_1),_(51,_52))
 - nodepairs_(0,_51) - nodepairs_(1,_51) <= 0
_C5944: edgepairs_((0,_26),_(50,_51)) + edgepairs_((0,_26),_(51,_52))
 - nodepairs_(0,_51) - nodepairs_(26,_51) <= 0
_C5945: - nodepairs_(0,_51) <= 0
_C5946: - nodepairs_(1,_51) <= 0
_C5947: - nodepairs_(3,_51) <= 0
_C5948: - nodepairs_(3,_51) <= 0
_C5949: edgepairs_((3,_5),_(50,_51)) + edgepairs_((3,_5),_(51,_52))
 - nodepairs_(3,_51) - nodepairs_(5,_51) <= 0
_C595: edgepairs_((5,_6),_(52,_53)) + edgepairs_((6,_7),_(52,_53))
 - nodepairs_(6,_52) - nodepairs_(6,_53) <= 0
_C5950: edgepairs_((5,_6),_(50,_51)) + edgepairs_((5,_6),_(51,_52))
 - nodepairs_(5,_51) - nodepairs_(6,_51) <= 0
_C5951: edgepairs_((6,_7),_(50,_51)) + edgepairs_((6,_7),_(51,_52))
 - nodepairs_(6,_51) - nodepairs_(7,_51) <= 0
_C5952: edgepairs_((7,_8),_(50,_51)) + edgepairs_((7,_8),_(51,_52))
 - nodepairs_(7,_51) - nodepairs_(8,_51) <= 0
_C5953: edgepairs_((8,_9),_(50,_51)) + edgepairs_((8,_9),_(51,_52))
 - nodepairs_(8,_51) - nodepairs_(9,_51) <= 0
_C5954: edgepairs_((9,_10),_(50,_51)) + edgepairs_((9,_10),_(51,_52))
 - nodepairs_(10,_51) - nodepairs_(9,_51) <= 0
_C5955: edgepairs_((10,_11),_(50,_51)) + edgepairs_((10,_11),_(51,_52))
 - nodepairs_(10,_51) - nodepairs_(11,_51) <= 0
_C5956: edgepairs_((11,_12),_(50,_51)) + edgepairs_((11,_12),_(51,_52))
 - nodepairs_(11,_51) - nodepairs_(12,_51) <= 0
_C5957: edgepairs_((12,_13),_(50,_51)) + edgepairs_((12,_13),_(51,_52))
 - nodepairs_(12,_51) - nodepairs_(13,_51) <= 0
_C5958: edgepairs_((13,_14),_(50,_51)) + edgepairs_((13,_14),_(51,_52))
 - nodepairs_(13,_51) - nodepairs_(14,_51) <= 0
_C5959: edgepairs_((14,_15),_(50,_51)) + edgepairs_((14,_15),_(51,_52))
 - nodepairs_(14,_51) - nodepairs_(15,_51) <= 0
_C596: edgepairs_((5,_6),_(53,_54)) + edgepairs_((6,_7),_(53,_54))
 - nodepairs_(6,_53) - nodepairs_(6,_54) <= 0
_C5960: edgepairs_((15,_16),_(50,_51)) + edgepairs_((15,_16),_(51,_52))
 - nodepairs_(15,_51) - nodepairs_(16,_51) <= 0
_C5961: edgepairs_((16,_17),_(50,_51)) + edgepairs_((16,_17),_(51,_52))
 - nodepairs_(16,_51) - nodepairs_(17,_51) <= 0
_C5962: edgepairs_((17,_18),_(50,_51)) + edgepairs_((17,_18),_(51,_52))
 - nodepairs_(17,_51) - nodepairs_(18,_51) <= 0
_C5963: edgepairs_((18,_19),_(50,_51)) + edgepairs_((18,_19),_(51,_52))
 - nodepairs_(18,_51) - nodepairs_(19,_51) <= 0
_C5964: edgepairs_((19,_20),_(50,_51)) + edgepairs_((19,_20),_(51,_52))
 - nodepairs_(19,_51) - nodepairs_(20,_51) <= 0
_C5965: edgepairs_((20,_21),_(50,_51)) + edgepairs_((20,_21),_(51,_52))
 - nodepairs_(20,_51) - nodepairs_(21,_51) <= 0
_C5966: edgepairs_((21,_22),_(50,_51)) + edgepairs_((21,_22),_(51,_52))
 - nodepairs_(21,_51) - nodepairs_(22,_51) <= 0
_C5967: edgepairs_((22,_23),_(50,_51)) + edgepairs_((22,_23),_(51,_52))
 - nodepairs_(22,_51) - nodepairs_(23,_51) <= 0
_C5968: edgepairs_((23,_24),_(50,_51)) + edgepairs_((23,_24),_(51,_52))
 - nodepairs_(23,_51) - nodepairs_(24,_51) <= 0
_C5969: edgepairs_((23,_25),_(50,_51)) + edgepairs_((23,_25),_(51,_52))
 - nodepairs_(23,_51) - nodepairs_(25,_51) <= 0
_C597: edgepairs_((6,_7),_(0,_1)) + edgepairs_((7,_8),_(0,_1))
 - nodepairs_(7,_0) - nodepairs_(7,_1) <= 0
_C5970: - nodepairs_(26,_51) <= 0
_C5971: - nodepairs_(28,_51) <= 0
_C5972: - nodepairs_(28,_51) <= 0
_C5973: edgepairs_((28,_30),_(50,_51)) + edgepairs_((28,_30),_(51,_52))
 - nodepairs_(28,_51) - nodepairs_(30,_51) <= 0
_C5974: edgepairs_((30,_31),_(50,_51)) + edgepairs_((30,_31),_(51,_52))
 - nodepairs_(30,_51) - nodepairs_(31,_51) <= 0
_C5975: edgepairs_((31,_32),_(50,_51)) + edgepairs_((31,_32),_(51,_52))
 - nodepairs_(31,_51) - nodepairs_(32,_51) <= 0
_C5976: edgepairs_((32,_33),_(50,_51)) + edgepairs_((32,_33),_(51,_52))
 - nodepairs_(32,_51) - nodepairs_(33,_51) <= 0
_C5977: edgepairs_((33,_34),_(50,_51)) + edgepairs_((33,_34),_(51,_52))
 - nodepairs_(33,_51) - nodepairs_(34,_51) <= 0
_C5978: edgepairs_((34,_35),_(50,_51)) + edgepairs_((34,_35),_(51,_52))
 - nodepairs_(34,_51) - nodepairs_(35,_51) <= 0
_C5979: edgepairs_((35,_36),_(50,_51)) + edgepairs_((35,_36),_(51,_52))
 - nodepairs_(35,_51) - nodepairs_(36,_51) <= 0
_C598: edgepairs_((6,_7),_(0,_17)) + edgepairs_((7,_8),_(0,_17))
 - nodepairs_(7,_0) - nodepairs_(7,_17) <= 0
_C5980: edgepairs_((36,_37),_(50,_51)) + edgepairs_((36,_37),_(51,_52))
 - nodepairs_(36,_51) - nodepairs_(37,_51) <= 0
_C5981: edgepairs_((37,_38),_(50,_51)) + edgepairs_((37,_38),_(51,_52))
 - nodepairs_(37,_51) - nodepairs_(38,_51) <= 0
_C5982: edgepairs_((38,_39),_(50,_51)) + edgepairs_((38,_39),_(51,_52))
 - nodepairs_(38,_51) - nodepairs_(39,_51) <= 0
_C5983: edgepairs_((39,_40),_(50,_51)) + edgepairs_((39,_40),_(51,_52))
 - nodepairs_(39,_51) - nodepairs_(40,_51) <= 0
_C5984: edgepairs_((40,_41),_(50,_51)) + edgepairs_((40,_41),_(51,_52))
 - nodepairs_(40,_51) - nodepairs_(41,_51) <= 0
_C5985: edgepairs_((40,_42),_(50,_51)) + edgepairs_((40,_42),_(51,_52))
 - nodepairs_(40,_51) - nodepairs_(42,_51) <= 0
_C5986: - nodepairs_(44,_51) <= 0
_C5987: - nodepairs_(44,_51) <= 0
_C5988: edgepairs_((44,_46),_(50,_51)) + edgepairs_((44,_46),_(51,_52))
 - nodepairs_(44,_51) - nodepairs_(46,_51) <= 0
_C5989: edgepairs_((46,_47),_(50,_51)) + edgepairs_((46,_47),_(51,_52))
 - nodepairs_(46,_51) - nodepairs_(47,_51) <= 0
_C599: - nodepairs_(7,_0) <= 0
_C5990: edgepairs_((47,_48),_(50,_51)) + edgepairs_((47,_48),_(51,_52))
 - nodepairs_(47,_51) - nodepairs_(48,_51) <= 0
_C5991: edgepairs_((48,_49),_(50,_51)) + edgepairs_((48,_49),_(51,_52))
 - nodepairs_(48,_51) - nodepairs_(49,_51) <= 0
_C5992: edgepairs_((49,_50),_(50,_51)) + edgepairs_((49,_50),_(51,_52))
 - nodepairs_(49,_51) - nodepairs_(50,_51) <= 0
_C5993: edgepairs_((50,_51),_(50,_51)) + edgepairs_((50,_51),_(51,_52))
 - nodepairs_(50,_51) - nodepairs_(51,_51) <= 0
_C5994: edgepairs_((51,_52),_(50,_51)) + edgepairs_((51,_52),_(51,_52))
 - nodepairs_(51,_51) - nodepairs_(52,_51) <= 0
_C5995: edgepairs_((52,_53),_(50,_51)) + edgepairs_((52,_53),_(51,_52))
 - nodepairs_(52,_51) - nodepairs_(53,_51) <= 0
_C5996: edgepairs_((53,_54),_(50,_51)) + edgepairs_((53,_54),_(51,_52))
 - nodepairs_(53,_51) - nodepairs_(54,_51) <= 0
_C5997: edgepairs_((0,_1),_(51,_52)) + edgepairs_((0,_1),_(52,_53))
 - nodepairs_(0,_52) - nodepairs_(1,_52) <= 0
_C5998: edgepairs_((0,_26),_(51,_52)) + edgepairs_((0,_26),_(52,_53))
 - nodepairs_(0,_52) - nodepairs_(26,_52) <= 0
_C5999: - nodepairs_(0,_52) <= 0
_C6: nodepairs_(5,_0) + nodepairs_(5,_1) + nodepairs_(5,_10)
 + nodepairs_(5,_11) + nodepairs_(5,_12) + nodepairs_(5,_13)
 + nodepairs_(5,_14) + nodepairs_(5,_15) + nodepairs_(5,_16)
 + nodepairs_(5,_17) + nodepairs_(5,_19) + nodepairs_(5,_21)
 + nodepairs_(5,_22) + nodepairs_(5,_23) + nodepairs_(5,_24)
 + nodepairs_(5,_25) + nodepairs_(5,_26) + nodepairs_(5,_27)
 + nodepairs_(5,_28) + nodepairs_(5,_29) + nodepairs_(5,_3)
 + nodepairs_(5,_30) + nodepairs_(5,_31) + nodepairs_(5,_32)
 + nodepairs_(5,_33) + nodepairs_(5,_34) + nodepairs_(5,_35)
 + nodepairs_(5,_36) + nodepairs_(5,_37) + nodepairs_(5,_38)
 + nodepairs_(5,_39) + nodepairs_(5,_40) + nodepairs_(5,_42)
 + nodepairs_(5,_44) + nodepairs_(5,_45) + nodepairs_(5,_46)
 + nodepairs_(5,_47) + nodepairs_(5,_48) + nodepairs_(5,_49)
 + nodepairs_(5,_5) + nodepairs_(5,_50) + nodepairs_(5,_51)
 + nodepairs_(5,_52) + nodepairs_(5,_53) + nodepairs_(5,_54)
 + nodepairs_(5,_6) + nodepairs_(5,_7) + nodepairs_(5,_8) + nodepairs_(5,_9)
 <= 1
_C60: nodepairs_(2,_4) + nodepairs_(27,_4) + nodepairs_(29,_4)
 + nodepairs_(4,_4) + nodepairs_(43,_4) + nodepairs_(45,_4) <= 1
_C600: - nodepairs_(7,_1) <= 0
_C6000: - nodepairs_(1,_52) <= 0
_C6001: - nodepairs_(3,_52) <= 0
_C6002: - nodepairs_(3,_52) <= 0
_C6003: edgepairs_((3,_5),_(51,_52)) + edgepairs_((3,_5),_(52,_53))
 - nodepairs_(3,_52) - nodepairs_(5,_52) <= 0
_C6004: edgepairs_((5,_6),_(51,_52)) + edgepairs_((5,_6),_(52,_53))
 - nodepairs_(5,_52) - nodepairs_(6,_52) <= 0
_C6005: edgepairs_((6,_7),_(51,_52)) + edgepairs_((6,_7),_(52,_53))
 - nodepairs_(6,_52) - nodepairs_(7,_52) <= 0
_C6006: edgepairs_((7,_8),_(51,_52)) + edgepairs_((7,_8),_(52,_53))
 - nodepairs_(7,_52) - nodepairs_(8,_52) <= 0
_C6007: edgepairs_((8,_9),_(51,_52)) + edgepairs_((8,_9),_(52,_53))
 - nodepairs_(8,_52) - nodepairs_(9,_52) <= 0
_C6008: edgepairs_((9,_10),_(51,_52)) + edgepairs_((9,_10),_(52,_53))
 - nodepairs_(10,_52) - nodepairs_(9,_52) <= 0
_C6009: edgepairs_((10,_11),_(51,_52)) + edgepairs_((10,_11),_(52,_53))
 - nodepairs_(10,_52) - nodepairs_(11,_52) <= 0
_C601: - nodepairs_(7,_3) <= 0
_C6010: edgepairs_((11,_12),_(51,_52)) + edgepairs_((11,_12),_(52,_53))
 - nodepairs_(11,_52) - nodepairs_(12,_52) <= 0
_C6011: edgepairs_((12,_13),_(51,_52)) + edgepairs_((12,_13),_(52,_53))
 - nodepairs_(12,_52) - nodepairs_(13,_52) <= 0
_C6012: edgepairs_((13,_14),_(51,_52)) + edgepairs_((13,_14),_(52,_53))
 - nodepairs_(13,_52) - nodepairs_(14,_52) <= 0
_C6013: edgepairs_((14,_15),_(51,_52)) + edgepairs_((14,_15),_(52,_53))
 - nodepairs_(14,_52) - nodepairs_(15,_52) <= 0
_C6014: edgepairs_((15,_16),_(51,_52)) + edgepairs_((15,_16),_(52,_53))
 - nodepairs_(15,_52) - nodepairs_(16,_52) <= 0
_C6015: edgepairs_((16,_17),_(51,_52)) + edgepairs_((16,_17),_(52,_53))
 - nodepairs_(16,_52) - nodepairs_(17,_52) <= 0
_C6016: edgepairs_((17,_18),_(51,_52)) + edgepairs_((17,_18),_(52,_53))
 - nodepairs_(17,_52) - nodepairs_(18,_52) <= 0
_C6017: edgepairs_((18,_19),_(51,_52)) + edgepairs_((18,_19),_(52,_53))
 - nodepairs_(18,_52) - nodepairs_(19,_52) <= 0
_C6018: edgepairs_((19,_20),_(51,_52)) + edgepairs_((19,_20),_(52,_53))
 - nodepairs_(19,_52) - nodepairs_(20,_52) <= 0
_C6019: edgepairs_((20,_21),_(51,_52)) + edgepairs_((20,_21),_(52,_53))
 - nodepairs_(20,_52) - nodepairs_(21,_52) <= 0
_C602: - nodepairs_(7,_3) <= 0
_C6020: edgepairs_((21,_22),_(51,_52)) + edgepairs_((21,_22),_(52,_53))
 - nodepairs_(21,_52) - nodepairs_(22,_52) <= 0
_C6021: edgepairs_((22,_23),_(51,_52)) + edgepairs_((22,_23),_(52,_53))
 - nodepairs_(22,_52) - nodepairs_(23,_52) <= 0
_C6022: edgepairs_((23,_24),_(51,_52)) + edgepairs_((23,_24),_(52,_53))
 - nodepairs_(23,_52) - nodepairs_(24,_52) <= 0
_C6023: edgepairs_((23,_25),_(51,_52)) + edgepairs_((23,_25),_(52,_53))
 - nodepairs_(23,_52) - nodepairs_(25,_52) <= 0
_C6024: - nodepairs_(26,_52) <= 0
_C6025: - nodepairs_(28,_52) <= 0
_C6026: - nodepairs_(28,_52) <= 0
_C6027: edgepairs_((28,_30),_(51,_52)) + edgepairs_((28,_30),_(52,_53))
 - nodepairs_(28,_52) - nodepairs_(30,_52) <= 0
_C6028: edgepairs_((30,_31),_(51,_52)) + edgepairs_((30,_31),_(52,_53))
 - nodepairs_(30,_52) - nodepairs_(31,_52) <= 0
_C6029: edgepairs_((31,_32),_(51,_52)) + edgepairs_((31,_32),_(52,_53))
 - nodepairs_(31,_52) - nodepairs_(32,_52) <= 0
_C603: edgepairs_((6,_7),_(3,_5)) + edgepairs_((7,_8),_(3,_5))
 - nodepairs_(7,_3) - nodepairs_(7,_5) <= 0
_C6030: edgepairs_((32,_33),_(51,_52)) + edgepairs_((32,_33),_(52,_53))
 - nodepairs_(32,_52) - nodepairs_(33,_52) <= 0
_C6031: edgepairs_((33,_34),_(51,_52)) + edgepairs_((33,_34),_(52,_53))
 - nodepairs_(33,_52) - nodepairs_(34,_52) <= 0
_C6032: edgepairs_((34,_35),_(51,_52)) + edgepairs_((34,_35),_(52,_53))
 - nodepairs_(34,_52) - nodepairs_(35,_52) <= 0
_C6033: edgepairs_((35,_36),_(51,_52)) + edgepairs_((35,_36),_(52,_53))
 - nodepairs_(35,_52) - nodepairs_(36,_52) <= 0
_C6034: edgepairs_((36,_37),_(51,_52)) + edgepairs_((36,_37),_(52,_53))
 - nodepairs_(36,_52) - nodepairs_(37,_52) <= 0
_C6035: edgepairs_((37,_38),_(51,_52)) + edgepairs_((37,_38),_(52,_53))
 - nodepairs_(37,_52) - nodepairs_(38,_52) <= 0
_C6036: edgepairs_((38,_39),_(51,_52)) + edgepairs_((38,_39),_(52,_53))
 - nodepairs_(38,_52) - nodepairs_(39,_52) <= 0
_C6037: edgepairs_((39,_40),_(51,_52)) + edgepairs_((39,_40),_(52,_53))
 - nodepairs_(39,_52) - nodepairs_(40,_52) <= 0
_C6038: edgepairs_((40,_41),_(51,_52)) + edgepairs_((40,_41),_(52,_53))
 - nodepairs_(40,_52) - nodepairs_(41,_52) <= 0
_C6039: edgepairs_((40,_42),_(51,_52)) + edgepairs_((40,_42),_(52,_53))
 - nodepairs_(40,_52) - nodepairs_(42,_52) <= 0
_C604: edgepairs_((6,_7),_(5,_6)) + edgepairs_((7,_8),_(5,_6))
 - nodepairs_(7,_5) - nodepairs_(7,_6) <= 0
_C6040: - nodepairs_(44,_52) <= 0
_C6041: - nodepairs_(44,_52) <= 0
_C6042: edgepairs_((44,_46),_(51,_52)) + edgepairs_((44,_46),_(52,_53))
 - nodepairs_(44,_52) - nodepairs_(46,_52) <= 0
_C6043: edgepairs_((46,_47),_(51,_52)) + edgepairs_((46,_47),_(52,_53))
 - nodepairs_(46,_52) - nodepairs_(47,_52) <= 0
_C6044: edgepairs_((47,_48),_(51,_52)) + edgepairs_((47,_48),_(52,_53))
 - nodepairs_(47,_52) - nodepairs_(48,_52) <= 0
_C6045: edgepairs_((48,_49),_(51,_52)) + edgepairs_((48,_49),_(52,_53))
 - nodepairs_(48,_52) - nodepairs_(49,_52) <= 0
_C6046: edgepairs_((49,_50),_(51,_52)) + edgepairs_((49,_50),_(52,_53))
 - nodepairs_(49,_52) - nodepairs_(50,_52) <= 0
_C6047: edgepairs_((50,_51),_(51,_52)) + edgepairs_((50,_51),_(52,_53))
 - nodepairs_(50,_52) - nodepairs_(51,_52) <= 0
_C6048: edgepairs_((51,_52),_(51,_52)) + edgepairs_((51,_52),_(52,_53))
 - nodepairs_(51,_52) - nodepairs_(52,_52) <= 0
_C6049: edgepairs_((52,_53),_(51,_52)) + edgepairs_((52,_53),_(52,_53))
 - nodepairs_(52,_52) - nodepairs_(53,_52) <= 0
_C605: edgepairs_((6,_7),_(6,_7)) + edgepairs_((7,_8),_(6,_7))
 - nodepairs_(7,_6) - nodepairs_(7,_7) <= 0
_C6050: edgepairs_((53,_54),_(51,_52)) + edgepairs_((53,_54),_(52,_53))
 - nodepairs_(53,_52) - nodepairs_(54,_52) <= 0
_C6051: edgepairs_((0,_1),_(52,_53)) + edgepairs_((0,_1),_(53,_54))
 - nodepairs_(0,_53) - nodepairs_(1,_53) <= 0
_C6052: edgepairs_((0,_26),_(52,_53)) + edgepairs_((0,_26),_(53,_54))
 - nodepairs_(0,_53) - nodepairs_(26,_53) <= 0
_C6053: - nodepairs_(0,_53) <= 0
_C6054: - nodepairs_(1,_53) <= 0
_C6055: - nodepairs_(3,_53) <= 0
_C6056: - nodepairs_(3,_53) <= 0
_C6057: edgepairs_((3,_5),_(52,_53)) + edgepairs_((3,_5),_(53,_54))
 - nodepairs_(3,_53) - nodepairs_(5,_53) <= 0
_C6058: edgepairs_((5,_6),_(52,_53)) + edgepairs_((5,_6),_(53,_54))
 - nodepairs_(5,_53) - nodepairs_(6,_53) <= 0
_C6059: edgepairs_((6,_7),_(52,_53)) + edgepairs_((6,_7),_(53,_54))
 - nodepairs_(6,_53) - nodepairs_(7,_53) <= 0
_C606: edgepairs_((6,_7),_(7,_8)) + edgepairs_((7,_8),_(7,_8))
 - nodepairs_(7,_7) - nodepairs_(7,_8) <= 0
_C6060: edgepairs_((7,_8),_(52,_53)) + edgepairs_((7,_8),_(53,_54))
 - nodepairs_(7,_53) - nodepairs_(8,_53) <= 0
_C6061: edgepairs_((8,_9),_(52,_53)) + edgepairs_((8,_9),_(53,_54))
 - nodepairs_(8,_53) - nodepairs_(9,_53) <= 0
_C6062: edgepairs_((9,_10),_(52,_53)) + edgepairs_((9,_10),_(53,_54))
 - nodepairs_(10,_53) - nodepairs_(9,_53) <= 0
_C6063: edgepairs_((10,_11),_(52,_53)) + edgepairs_((10,_11),_(53,_54))
 - nodepairs_(10,_53) - nodepairs_(11,_53) <= 0
_C6064: edgepairs_((11,_12),_(52,_53)) + edgepairs_((11,_12),_(53,_54))
 - nodepairs_(11,_53) - nodepairs_(12,_53) <= 0
_C6065: edgepairs_((12,_13),_(52,_53)) + edgepairs_((12,_13),_(53,_54))
 - nodepairs_(12,_53) - nodepairs_(13,_53) <= 0
_C6066: edgepairs_((13,_14),_(52,_53)) + edgepairs_((13,_14),_(53,_54))
 - nodepairs_(13,_53) - nodepairs_(14,_53) <= 0
_C6067: edgepairs_((14,_15),_(52,_53)) + edgepairs_((14,_15),_(53,_54))
 - nodepairs_(14,_53) - nodepairs_(15,_53) <= 0
_C6068: edgepairs_((15,_16),_(52,_53)) + edgepairs_((15,_16),_(53,_54))
 - nodepairs_(15,_53) - nodepairs_(16,_53) <= 0
_C6069: edgepairs_((16,_17),_(52,_53)) + edgepairs_((16,_17),_(53,_54))
 - nodepairs_(16,_53) - nodepairs_(17,_53) <= 0
_C607: edgepairs_((6,_7),_(8,_9)) + edgepairs_((7,_8),_(8,_9))
 - nodepairs_(7,_8) - nodepairs_(7,_9) <= 0
_C6070: edgepairs_((17,_18),_(52,_53)) + edgepairs_((17,_18),_(53,_54))
 - nodepairs_(17,_53) - nodepairs_(18,_53) <= 0
_C6071: edgepairs_((18,_19),_(52,_53)) + edgepairs_((18,_19),_(53,_54))
 - nodepairs_(18,_53) - nodepairs_(19,_53) <= 0
_C6072: edgepairs_((19,_20),_(52,_53)) + edgepairs_((19,_20),_(53,_54))
 - nodepairs_(19,_53) - nodepairs_(20,_53) <= 0
_C6073: edgepairs_((20,_21),_(52,_53)) + edgepairs_((20,_21),_(53,_54))
 - nodepairs_(20,_53) - nodepairs_(21,_53) <= 0
_C6074: edgepairs_((21,_22),_(52,_53)) + edgepairs_((21,_22),_(53,_54))
 - nodepairs_(21,_53) - nodepairs_(22,_53) <= 0
_C6075: edgepairs_((22,_23),_(52,_53)) + edgepairs_((22,_23),_(53,_54))
 - nodepairs_(22,_53) - nodepairs_(23,_53) <= 0
_C6076: edgepairs_((23,_24),_(52,_53)) + edgepairs_((23,_24),_(53,_54))
 - nodepairs_(23,_53) - nodepairs_(24,_53) <= 0
_C6077: edgepairs_((23,_25),_(52,_53)) + edgepairs_((23,_25),_(53,_54))
 - nodepairs_(23,_53) - nodepairs_(25,_53) <= 0
_C6078: - nodepairs_(26,_53) <= 0
_C6079: - nodepairs_(28,_53) <= 0
_C608: edgepairs_((6,_7),_(9,_10)) + edgepairs_((7,_8),_(9,_10))
 - nodepairs_(7,_10) - nodepairs_(7,_9) <= 0
_C6080: - nodepairs_(28,_53) <= 0
_C6081: edgepairs_((28,_30),_(52,_53)) + edgepairs_((28,_30),_(53,_54))
 - nodepairs_(28,_53) - nodepairs_(30,_53) <= 0
_C6082: edgepairs_((30,_31),_(52,_53)) + edgepairs_((30,_31),_(53,_54))
 - nodepairs_(30,_53) - nodepairs_(31,_53) <= 0
_C6083: edgepairs_((31,_32),_(52,_53)) + edgepairs_((31,_32),_(53,_54))
 - nodepairs_(31,_53) - nodepairs_(32,_53) <= 0
_C6084: edgepairs_((32,_33),_(52,_53)) + edgepairs_((32,_33),_(53,_54))
 - nodepairs_(32,_53) - nodepairs_(33,_53) <= 0
_C6085: edgepairs_((33,_34),_(52,_53)) + edgepairs_((33,_34),_(53,_54))
 - nodepairs_(33,_53) - nodepairs_(34,_53) <= 0
_C6086: edgepairs_((34,_35),_(52,_53)) + edgepairs_((34,_35),_(53,_54))
 - nodepairs_(34,_53) - nodepairs_(35,_53) <= 0
_C6087: edgepairs_((35,_36),_(52,_53)) + edgepairs_((35,_36),_(53,_54))
 - nodepairs_(35,_53) - nodepairs_(36,_53) <= 0
_C6088: edgepairs_((36,_37),_(52,_53)) + edgepairs_((36,_37),_(53,_54))
 - nodepairs_(36,_53) - nodepairs_(37,_53) <= 0
_C6089: edgepairs_((37,_38),_(52,_53)) + edgepairs_((37,_38),_(53,_54))
 - nodepairs_(37,_53) - nodepairs_(38,_53) <= 0
_C609: edgepairs_((6,_7),_(10,_11)) + edgepairs_((7,_8),_(10,_11))
 - nodepairs_(7,_10) - nodepairs_(7,_11) <= 0
_C6090: edgepairs_((38,_39),_(52,_53)) + edgepairs_((38,_39),_(53,_54))
 - nodepairs_(38,_53) - nodepairs_(39,_53) <= 0
_C6091: edgepairs_((39,_40),_(52,_53)) + edgepairs_((39,_40),_(53,_54))
 - nodepairs_(39,_53) - nodepairs_(40,_53) <= 0
_C6092: edgepairs_((40,_41),_(52,_53)) + edgepairs_((40,_41),_(53,_54))
 - nodepairs_(40,_53) - nodepairs_(41,_53) <= 0
_C6093: edgepairs_((40,_42),_(52,_53)) + edgepairs_((40,_42),_(53,_54))
 - nodepairs_(40,_53) - nodepairs_(42,_53) <= 0
_C6094: - nodepairs_(44,_53) <= 0
_C6095: - nodepairs_(44,_53) <= 0
_C6096: edgepairs_((44,_46),_(52,_53)) + edgepairs_((44,_46),_(53,_54))
 - nodepairs_(44,_53) - nodepairs_(46,_53) <= 0
_C6097: edgepairs_((46,_47),_(52,_53)) + edgepairs_((46,_47),_(53,_54))
 - nodepairs_(46,_53) - nodepairs_(47,_53) <= 0
_C6098: edgepairs_((47,_48),_(52,_53)) + edgepairs_((47,_48),_(53,_54))
 - nodepairs_(47,_53) - nodepairs_(48,_53) <= 0
_C6099: edgepairs_((48,_49),_(52,_53)) + edgepairs_((48,_49),_(53,_54))
 - nodepairs_(48,_53) - nodepairs_(49,_53) <= 0
_C61: nodepairs_(0,_5) + nodepairs_(1,_5) + nodepairs_(10,_5)
 + nodepairs_(11,_5) + nodepairs_(12,_5) + nodepairs_(13,_5)
 + nodepairs_(14,_5) + nodepairs_(15,_5) + nodepairs_(16,_5)
 + nodepairs_(17,_5) + nodepairs_(18,_5) + nodepairs_(19,_5)
 + nodepairs_(20,_5) + nodepairs_(21,_5) + nodepairs_(22,_5)
 + nodepairs_(23,_5) + nodepairs_(24,_5) + nodepairs_(25,_5)
 + nodepairs_(26,_5) + nodepairs_(28,_5) + nodepairs_(3,_5)
 + nodepairs_(30,_5) + nodepairs_(31,_5) + nodepairs_(32,_5)
 + nodepairs_(33,_5) + nodepairs_(34,_5) + nodepairs_(35,_5)
 + nodepairs_(36,_5) + nodepairs_(37,_5) + nodepairs_(38,_5)
 + nodepairs_(39,_5) + nodepairs_(40,_5) + nodepairs_(41,_5)
 + nodepairs_(42,_5) + nodepairs_(44,_5) + nodepairs_(46,_5)
 + nodepairs_(47,_5) + nodepairs_(48,_5) + nodepairs_(49,_5)
 + nodepairs_(5,_5) + nodepairs_(50,_5) + nodepairs_(51,_5)
 + nodepairs_(52,_5) + nodepairs_(53,_5) + nodepairs_(54,_5)
 + nodepairs_(6,_5) + nodepairs_(7,_5) + nodepairs_(8,_5) + nodepairs_(9,_5)
 <= 1
_C610: edgepairs_((6,_7),_(11,_12)) + edgepairs_((7,_8),_(11,_12))
 - nodepairs_(7,_11) - nodepairs_(7,_12) <= 0
_C6100: edgepairs_((49,_50),_(52,_53)) + edgepairs_((49,_50),_(53,_54))
 - nodepairs_(49,_53) - nodepairs_(50,_53) <= 0
_C6101: edgepairs_((50,_51),_(52,_53)) + edgepairs_((50,_51),_(53,_54))
 - nodepairs_(50,_53) - nodepairs_(51,_53) <= 0
_C6102: edgepairs_((51,_52),_(52,_53)) + edgepairs_((51,_52),_(53,_54))
 - nodepairs_(51,_53) - nodepairs_(52,_53) <= 0
_C6103: edgepairs_((52,_53),_(52,_53)) + edgepairs_((52,_53),_(53,_54))
 - nodepairs_(52,_53) - nodepairs_(53,_53) <= 0
_C6104: edgepairs_((53,_54),_(52,_53)) + edgepairs_((53,_54),_(53,_54))
 - nodepairs_(53,_53) - nodepairs_(54,_53) <= 0
_C6105: edgepairs_((0,_1),_(53,_54)) - nodepairs_(0,_54) - nodepairs_(1,_54)
 <= 0
_C6106: edgepairs_((0,_26),_(53,_54)) - nodepairs_(0,_54) - nodepairs_(26,_54)
 <= 0
_C6107: - nodepairs_(0,_54) <= 0
_C6108: - nodepairs_(1,_54) <= 0
_C6109: - nodepairs_(3,_54) <= 0
_C611: edgepairs_((6,_7),_(12,_13)) + edgepairs_((7,_8),_(12,_13))
 - nodepairs_(7,_12) - nodepairs_(7,_13) <= 0
_C6110: - nodepairs_(3,_54) <= 0
_C6111: edgepairs_((3,_5),_(53,_54)) - nodepairs_(3,_54) - nodepairs_(5,_54)
 <= 0
_C6112: edgepairs_((5,_6),_(53,_54)) - nodepairs_(5,_54) - nodepairs_(6,_54)
 <= 0
_C6113: edgepairs_((6,_7),_(53,_54)) - nodepairs_(6,_54) - nodepairs_(7,_54)
 <= 0
_C6114: edgepairs_((7,_8),_(53,_54)) - nodepairs_(7,_54) - nodepairs_(8,_54)
 <= 0
_C6115: edgepairs_((8,_9),_(53,_54)) - nodepairs_(8,_54) - nodepairs_(9,_54)
 <= 0
_C6116: edgepairs_((9,_10),_(53,_54)) - nodepairs_(10,_54) - nodepairs_(9,_54)
 <= 0
_C6117: edgepairs_((10,_11),_(53,_54)) - nodepairs_(10,_54)
 - nodepairs_(11,_54) <= 0
_C6118: edgepairs_((11,_12),_(53,_54)) - nodepairs_(11,_54)
 - nodepairs_(12,_54) <= 0
_C6119: edgepairs_((12,_13),_(53,_54)) - nodepairs_(12,_54)
 - nodepairs_(13,_54) <= 0
_C612: edgepairs_((6,_7),_(13,_14)) + edgepairs_((7,_8),_(13,_14))
 - nodepairs_(7,_13) - nodepairs_(7,_14) <= 0
_C6120: edgepairs_((13,_14),_(53,_54)) - nodepairs_(13,_54)
 - nodepairs_(14,_54) <= 0
_C6121: edgepairs_((14,_15),_(53,_54)) - nodepairs_(14,_54)
 - nodepairs_(15,_54) <= 0
_C6122: edgepairs_((15,_16),_(53,_54)) - nodepairs_(15,_54)
 - nodepairs_(16,_54) <= 0
_C6123: edgepairs_((16,_17),_(53,_54)) - nodepairs_(16,_54)
 - nodepairs_(17,_54) <= 0
_C6124: edgepairs_((17,_18),_(53,_54)) - nodepairs_(17,_54)
 - nodepairs_(18,_54) <= 0
_C6125: edgepairs_((18,_19),_(53,_54)) - nodepairs_(18,_54)
 - nodepairs_(19,_54) <= 0
_C6126: edgepairs_((19,_20),_(53,_54)) - nodepairs_(19,_54)
 - nodepairs_(20,_54) <= 0
_C6127: edgepairs_((20,_21),_(53,_54)) - nodepairs_(20,_54)
 - nodepairs_(21,_54) <= 0
_C6128: edgepairs_((21,_22),_(53,_54)) - nodepairs_(21,_54)
 - nodepairs_(22,_54) <= 0
_C6129: edgepairs_((22,_23),_(53,_54)) - nodepairs_(22,_54)
 - nodepairs_(23,_54) <= 0
_C613: edgepairs_((6,_7),_(14,_15)) + edgepairs_((7,_8),_(14,_15))
 - nodepairs_(7,_14) - nodepairs_(7,_15) <= 0
_C6130: edgepairs_((23,_24),_(53,_54)) - nodepairs_(23,_54)
 - nodepairs_(24,_54) <= 0
_C6131: edgepairs_((23,_25),_(53,_54)) - nodepairs_(23,_54)
 - nodepairs_(25,_54) <= 0
_C6132: - nodepairs_(26,_54) <= 0
_C6133: - nodepairs_(28,_54) <= 0
_C6134: - nodepairs_(28,_54) <= 0
_C6135: edgepairs_((28,_30),_(53,_54)) - nodepairs_(28,_54)
 - nodepairs_(30,_54) <= 0
_C6136: edgepairs_((30,_31),_(53,_54)) - nodepairs_(30,_54)
 - nodepairs_(31,_54) <= 0
_C6137: edgepairs_((31,_32),_(53,_54)) - nodepairs_(31,_54)
 - nodepairs_(32,_54) <= 0
_C6138: edgepairs_((32,_33),_(53,_54)) - nodepairs_(32,_54)
 - nodepairs_(33,_54) <= 0
_C6139: edgepairs_((33,_34),_(53,_54)) - nodepairs_(33,_54)
 - nodepairs_(34,_54) <= 0
_C614: edgepairs_((6,_7),_(15,_16)) + edgepairs_((7,_8),_(15,_16))
 - nodepairs_(7,_15) - nodepairs_(7,_16) <= 0
_C6140: edgepairs_((34,_35),_(53,_54)) - nodepairs_(34,_54)
 - nodepairs_(35,_54) <= 0
_C6141: edgepairs_((35,_36),_(53,_54)) - nodepairs_(35,_54)
 - nodepairs_(36,_54) <= 0
_C6142: edgepairs_((36,_37),_(53,_54)) - nodepairs_(36,_54)
 - nodepairs_(37,_54) <= 0
_C6143: edgepairs_((37,_38),_(53,_54)) - nodepairs_(37,_54)
 - nodepairs_(38,_54) <= 0
_C6144: edgepairs_((38,_39),_(53,_54)) - nodepairs_(38,_54)
 - nodepairs_(39,_54) <= 0
_C6145: edgepairs_((39,_40),_(53,_54)) - nodepairs_(39,_54)
 - nodepairs_(40,_54) <= 0
_C6146: edgepairs_((40,_41),_(53,_54)) - nodepairs_(40,_54)
 - nodepairs_(41,_54) <= 0
_C6147: edgepairs_((40,_42),_(53,_54)) - nodepairs_(40,_54)
 - nodepairs_(42,_54) <= 0
_C6148: - nodepairs_(44,_54) <= 0
_C6149: - nodepairs_(44,_54) <= 0
_C615: - nodepairs_(7,_17) <= 0
_C6150: edgepairs_((44,_46),_(53,_54)) - nodepairs_(44,_54)
 - nodepairs_(46,_54) <= 0
_C6151: edgepairs_((46,_47),_(53,_54)) - nodepairs_(46,_54)
 - nodepairs_(47,_54) <= 0
_C6152: edgepairs_((47,_48),_(53,_54)) - nodepairs_(47,_54)
 - nodepairs_(48,_54) <= 0
_C6153: edgepairs_((48,_49),_(53,_54)) - nodepairs_(48,_54)
 - nodepairs_(49,_54) <= 0
_C6154: edgepairs_((49,_50),_(53,_54)) - nodepairs_(49,_54)
 - nodepairs_(50,_54) <= 0
_C6155: edgepairs_((50,_51),_(53,_54)) - nodepairs_(50,_54)
 - nodepairs_(51,_54) <= 0
_C6156: edgepairs_((51,_52),_(53,_54)) - nodepairs_(51,_54)
 - nodepairs_(52,_54) <= 0
_C6157: edgepairs_((52,_53),_(53,_54)) - nodepairs_(52,_54)
 - nodepairs_(53,_54) <= 0
_C6158: edgepairs_((53,_54),_(53,_54)) - nodepairs_(53,_54)
 - nodepairs_(54,_54) <= 0
_C6159: edgepairs_((0,_1),__1) + edgepairs_((0,_26),__1)
 + edgepairs_((0,_43),_(19,_20)) + edgepairs_((0,_43),_(3,_4))
 + edgepairs_((0,_43),_(42,_43)) + edgepairs_((0,_43),__1)
 + edgepairs_((1,_2),_(19,_20)) + edgepairs_((1,_2),_(3,_4))
 + edgepairs_((1,_2),_(42,_43)) + edgepairs_((1,_2),__1)
 + edgepairs_((10,_11),__1) + edgepairs_((11,_12),__1)
 + edgepairs_((12,_13),__1) + edgepairs_((13,_14),__1)
 + edgepairs_((14,_15),__1) + edgepairs_((15,_16),__1)
 + edgepairs_((16,_17),__1) + edgepairs_((17,_18),__1)
 + edgepairs_((18,_19),__1) + edgepairs_((19,_20),__1)
 + edgepairs_((2,_3),_(19,_20)) + edgepairs_((2,_3),_(3,_4))
 + edgepairs_((2,_3),_(42,_43)) + edgepairs_((2,_3),__1)
 + edgepairs_((20,_21),__1) + edgepairs_((21,_22),__1)
 + edgepairs_((22,_23),__1) + edgepairs_((23,_24),__1)
 + edgepairs_((23,_25),__1) + edgepairs_((26,_27),_(19,_20))
 + edgepairs_((26,_27),_(3,_4)) + edgepairs_((26,_27),_(42,_43))
 + edgepairs_((26,_27),__1) + edgepairs_((27,_28),_(19,_20))
 + edgepairs_((27,_28),_(3,_4)) + edgepairs_((27,_28),_(42,_43))
 + edgepairs_((27,_28),__1) + edgepairs_((28,_29),_(0,_41))
 + edgepairs_((28,_29),_(1,_2)) + edgepairs_((28,_29),_(17,_18))
 + edgepairs_((28,_29),_(18,_19)) + edgepairs_((28,_29),_(2,_3))
 + edgepairs_((28,_29),_(41,_42)) + 2 edgepairs_((28,_29),__1)
 + edgepairs_((28,_30),__1) + edgepairs_((3,_4),_(0,_41))
 + edgepairs_((3,_4),_(1,_2)) + edgepairs_((3,_4),_(17,_18))
 + edgepairs_((3,_4),_(18,_19)) + edgepairs_((3,_4),_(2,_3))
 + edgepairs_((3,_4),_(41,_42)) + 2 edgepairs_((3,_4),__1)
 + edgepairs_((3,_5),__1) + edgepairs_((30,_31),__1)
 + edgepairs_((31,_32),__1) + edgepairs_((32,_33),__1)
 + edgepairs_((33,_34),__1) + edgepairs_((34,_35),__1)
 + edgepairs_((35,_36),__1) + edgepairs_((36,_37),__1)
 + edgepairs_((37,_38),__1) + edgepairs_((38,_39),__1)
 + edgepairs_((39,_40),__1) + edgepairs_((40,_41),__1)
 + edgepairs_((40,_42),__1) + edgepairs_((43,_44),_(19,_20))
 + edgepairs_((43,_44),_(3,_4)) + edgepairs_((43,_44),_(42,_43))
 + edgepairs_((43,_44),__1) + edgepairs_((44,_45),_(0,_41))
 + edgepairs_((44,_45),_(1,_2)) + edgepairs_((44,_45),_(17,_18))
 + edgepairs_((44,_45),_(18,_19)) + edgepairs_((44,_45),_(2,_3))
 + edgepairs_((44,_45),_(41,_42)) + 2 edgepairs_((44,_45),__1)
 + edgepairs_((44,_46),__1) + edgepairs_((46,_47),__1)
 + edgepairs_((47,_48),__1) + edgepairs_((48,_49),__1)
 + edgepairs_((49,_50),__1) + edgepairs_((5,_6),__1)
 + edgepairs_((50,_51),__1) + edgepairs_((51,_52),__1)
 + edgepairs_((52,_53),__1) + edgepairs_((53,_54),__1)
 + edgepairs_((6,_7),__1) + edgepairs_((7,_8),__1) + edgepairs_((8,_9),__1)
 + edgepairs_((9,_10),__1) + edgepairs_(_1,_(0,_1)) + edgepairs_(_1,_(0,_17))
 + edgepairs_(_1,_(0,_41)) + edgepairs_(_1,_(1,_2)) + edgepairs_(_1,_(10,_11))
 + edgepairs_(_1,_(11,_12)) + edgepairs_(_1,_(12,_13))
 + edgepairs_(_1,_(13,_14)) + edgepairs_(_1,_(14,_15))
 + edgepairs_(_1,_(15,_16)) + edgepairs_(_1,_(17,_18))
 + edgepairs_(_1,_(18,_19)) + 2 edgepairs_(_1,_(19,_20))
 + edgepairs_(_1,_(19,_21)) + edgepairs_(_1,_(2,_3))
 + edgepairs_(_1,_(21,_22)) + edgepairs_(_1,_(22,_23))
 + edgepairs_(_1,_(23,_24)) + edgepairs_(_1,_(24,_25))
 + edgepairs_(_1,_(25,_26)) + edgepairs_(_1,_(26,_27))
 + edgepairs_(_1,_(27,_28)) + edgepairs_(_1,_(28,_29))
 + edgepairs_(_1,_(29,_30)) + 2 edgepairs_(_1,_(3,_4))
 + edgepairs_(_1,_(3,_5)) + edgepairs_(_1,_(30,_31))
 + edgepairs_(_1,_(31,_32)) + edgepairs_(_1,_(32,_33))
 + edgepairs_(_1,_(33,_34)) + edgepairs_(_1,_(34,_35))
 + edgepairs_(_1,_(35,_36)) + edgepairs_(_1,_(36,_37))
 + edgepairs_(_1,_(37,_38)) + edgepairs_(_1,_(37,_39))
 + edgepairs_(_1,_(39,_40)) + edgepairs_(_1,_(41,_42))
 + 2 edgepairs_(_1,_(42,_43)) + edgepairs_(_1,_(42,_44))
 + edgepairs_(_1,_(44,_45)) + edgepairs_(_1,_(45,_46))
 + edgepairs_(_1,_(46,_47)) + edgepairs_(_1,_(47,_48))
 + edgepairs_(_1,_(48,_49)) + edgepairs_(_1,_(49,_50))
 + edgepairs_(_1,_(5,_6)) + edgepairs_(_1,_(50,_51))
 + edgepairs_(_1,_(51,_52)) + edgepairs_(_1,_(52,_53))
 + edgepairs_(_1,_(53,_54)) + edgepairs_(_1,_(6,_7)) + edgepairs_(_1,_(7,_8))
 + edgepairs_(_1,_(8,_9)) + edgepairs_(_1,_(9,_10)) <= 10
_C616: - nodepairs_(7,_19) <= 0
_C617: - nodepairs_(7,_19) <= 0
_C618: edgepairs_((6,_7),_(19,_21)) + edgepairs_((7,_8),_(19,_21))
 - nodepairs_(7,_19) - nodepairs_(7,_21) <= 0
_C619: edgepairs_((6,_7),_(21,_22)) + edgepairs_((7,_8),_(21,_22))
 - nodepairs_(7,_21) - nodepairs_(7,_22) <= 0
_C62: nodepairs_(0,_6) + nodepairs_(1,_6) + nodepairs_(10,_6)
 + nodepairs_(11,_6) + nodepairs_(12,_6) + nodepairs_(13,_6)
 + nodepairs_(14,_6) + nodepairs_(15,_6) + nodepairs_(16,_6)
 + nodepairs_(17,_6) + nodepairs_(18,_6) + nodepairs_(19,_6)
 + nodepairs_(20,_6) + nodepairs_(21,_6) + nodepairs_(22,_6)
 + nodepairs_(23,_6) + nodepairs_(24,_6) + nodepairs_(25,_6)
 + nodepairs_(26,_6) + nodepairs_(28,_6) + nodepairs_(3,_6)
 + nodepairs_(30,_6) + nodepairs_(31,_6) + nodepairs_(32,_6)
 + nodepairs_(33,_6) + nodepairs_(34,_6) + nodepairs_(35,_6)
 + nodepairs_(36,_6) + nodepairs_(37,_6) + nodepairs_(38,_6)
 + nodepairs_(39,_6) + nodepairs_(40,_6) + nodepairs_(41,_6)
 + nodepairs_(42,_6) + nodepairs_(44,_6) + nodepairs_(46,_6)
 + nodepairs_(47,_6) + nodepairs_(48,_6) + nodepairs_(49,_6)
 + nodepairs_(5,_6) + nodepairs_(50,_6) + nodepairs_(51,_6)
 + nodepairs_(52,_6) + nodepairs_(53,_6) + nodepairs_(54,_6)
 + nodepairs_(6,_6) + nodepairs_(7,_6) + nodepairs_(8,_6) + nodepairs_(9,_6)
 <= 1
_C620: edgepairs_((6,_7),_(22,_23)) + edgepairs_((7,_8),_(22,_23))
 - nodepairs_(7,_22) - nodepairs_(7,_23) <= 0
_C621: edgepairs_((6,_7),_(23,_24)) + edgepairs_((7,_8),_(23,_24))
 - nodepairs_(7,_23) - nodepairs_(7,_24) <= 0
_C622: edgepairs_((6,_7),_(24,_25)) + edgepairs_((7,_8),_(24,_25))
 - nodepairs_(7,_24) - nodepairs_(7,_25) <= 0
_C623: edgepairs_((6,_7),_(25,_26)) + edgepairs_((7,_8),_(25,_26))
 - nodepairs_(7,_25) - nodepairs_(7,_26) <= 0
_C624: edgepairs_((6,_7),_(26,_27)) + edgepairs_((7,_8),_(26,_27))
 - nodepairs_(7,_26) - nodepairs_(7,_27) <= 0
_C625: edgepairs_((6,_7),_(27,_28)) + edgepairs_((7,_8),_(27,_28))
 - nodepairs_(7,_27) - nodepairs_(7,_28) <= 0
_C626: edgepairs_((6,_7),_(28,_29)) + edgepairs_((7,_8),_(28,_29))
 - nodepairs_(7,_28) - nodepairs_(7,_29) <= 0
_C627: edgepairs_((6,_7),_(29,_30)) + edgepairs_((7,_8),_(29,_30))
 - nodepairs_(7,_29) - nodepairs_(7,_30) <= 0
_C628: edgepairs_((6,_7),_(30,_31)) + edgepairs_((7,_8),_(30,_31))
 - nodepairs_(7,_30) - nodepairs_(7,_31) <= 0
_C629: edgepairs_((6,_7),_(31,_32)) + edgepairs_((7,_8),_(31,_32))
 - nodepairs_(7,_31) - nodepairs_(7,_32) <= 0
_C63: nodepairs_(0,_7) + nodepairs_(1,_7) + nodepairs_(10,_7)
 + nodepairs_(11,_7) + nodepairs_(12,_7) + nodepairs_(13,_7)
 + nodepairs_(14,_7) + nodepairs_(15,_7) + nodepairs_(16,_7)
 + nodepairs_(17,_7) + nodepairs_(18,_7) + nodepairs_(19,_7)
 + nodepairs_(20,_7) + nodepairs_(21,_7) + nodepairs_(22,_7)
 + nodepairs_(23,_7) + nodepairs_(24,_7) + nodepairs_(25,_7)
 + nodepairs_(26,_7) + nodepairs_(28,_7) + nodepairs_(3,_7)
 + nodepairs_(30,_7) + nodepairs_(31,_7) + nodepairs_(32,_7)
 + nodepairs_(33,_7) + nodepairs_(34,_7) + nodepairs_(35,_7)
 + nodepairs_(36,_7) + nodepairs_(37,_7) + nodepairs_(38,_7)
 + nodepairs_(39,_7) + nodepairs_(40,_7) + nodepairs_(41,_7)
 + nodepairs_(42,_7) + nodepairs_(44,_7) + nodepairs_(46,_7)
 + nodepairs_(47,_7) + nodepairs_(48,_7) + nodepairs_(49,_7)
 + nodepairs_(5,_7) + nodepairs_(50,_7) + nodepairs_(51,_7)
 + nodepairs_(52,_7) + nodepairs_(53,_7) + nodepairs_(54,_7)
 + nodepairs_(6,_7) + nodepairs_(7,_7) + nodepairs_(8,_7) + nodepairs_(9,_7)
 <= 1
_C630: edgepairs_((6,_7),_(32,_33)) + edgepairs_((7,_8),_(32,_33))
 - nodepairs_(7,_32) - nodepairs_(7,_33) <= 0
_C631: edgepairs_((6,_7),_(33,_34)) + edgepairs_((7,_8),_(33,_34))
 - nodepairs_(7,_33) - nodepairs_(7,_34) <= 0
_C632: edgepairs_((6,_7),_(34,_35)) + edgepairs_((7,_8),_(34,_35))
 - nodepairs_(7,_34) - nodepairs_(7,_35) <= 0
_C633: edgepairs_((6,_7),_(35,_36)) + edgepairs_((7,_8),_(35,_36))
 - nodepairs_(7,_35) - nodepairs_(7,_36) <= 0
_C634: edgepairs_((6,_7),_(36,_37)) + edgepairs_((7,_8),_(36,_37))
 - nodepairs_(7,_36) - nodepairs_(7,_37) <= 0
_C635: edgepairs_((6,_7),_(37,_38)) + edgepairs_((7,_8),_(37,_38))
 - nodepairs_(7,_37) - nodepairs_(7,_38) <= 0
_C636: edgepairs_((6,_7),_(37,_39)) + edgepairs_((7,_8),_(37,_39))
 - nodepairs_(7,_37) - nodepairs_(7,_39) <= 0
_C637: edgepairs_((6,_7),_(39,_40)) + edgepairs_((7,_8),_(39,_40))
 - nodepairs_(7,_39) - nodepairs_(7,_40) <= 0
_C638: - nodepairs_(7,_42) <= 0
_C639: - nodepairs_(7,_42) <= 0
_C64: nodepairs_(0,_8) + nodepairs_(1,_8) + nodepairs_(10,_8)
 + nodepairs_(11,_8) + nodepairs_(12,_8) + nodepairs_(13,_8)
 + nodepairs_(14,_8) + nodepairs_(15,_8) + nodepairs_(16,_8)
 + nodepairs_(17,_8) + nodepairs_(18,_8) + nodepairs_(19,_8)
 + nodepairs_(20,_8) + nodepairs_(21,_8) + nodepairs_(22,_8)
 + nodepairs_(23,_8) + nodepairs_(24,_8) + nodepairs_(25,_8)
 + nodepairs_(26,_8) + nodepairs_(28,_8) + nodepairs_(3,_8)
 + nodepairs_(30,_8) + nodepairs_(31,_8) + nodepairs_(32,_8)
 + nodepairs_(33,_8) + nodepairs_(34,_8) + nodepairs_(35,_8)
 + nodepairs_(36,_8) + nodepairs_(37,_8) + nodepairs_(38,_8)
 + nodepairs_(39,_8) + nodepairs_(40,_8) + nodepairs_(41,_8)
 + nodepairs_(42,_8) + nodepairs_(44,_8) + nodepairs_(46,_8)
 + nodepairs_(47,_8) + nodepairs_(48,_8) + nodepairs_(49,_8)
 + nodepairs_(5,_8) + nodepairs_(50,_8) + nodepairs_(51,_8)
 + nodepairs_(52,_8) + nodepairs_(53,_8) + nodepairs_(54,_8)
 + nodepairs_(6,_8) + nodepairs_(7,_8) + nodepairs_(8,_8) + nodepairs_(9,_8)
 <= 1
_C640: edgepairs_((6,_7),_(42,_44)) + edgepairs_((7,_8),_(42,_44))
 - nodepairs_(7,_42) - nodepairs_(7,_44) <= 0
_C641: edgepairs_((6,_7),_(44,_45)) + edgepairs_((7,_8),_(44,_45))
 - nodepairs_(7,_44) - nodepairs_(7,_45) <= 0
_C642: edgepairs_((6,_7),_(45,_46)) + edgepairs_((7,_8),_(45,_46))
 - nodepairs_(7,_45) - nodepairs_(7,_46) <= 0
_C643: edgepairs_((6,_7),_(46,_47)) + edgepairs_((7,_8),_(46,_47))
 - nodepairs_(7,_46) - nodepairs_(7,_47) <= 0
_C644: edgepairs_((6,_7),_(47,_48)) + edgepairs_((7,_8),_(47,_48))
 - nodepairs_(7,_47) - nodepairs_(7,_48) <= 0
_C645: edgepairs_((6,_7),_(48,_49)) + edgepairs_((7,_8),_(48,_49))
 - nodepairs_(7,_48) - nodepairs_(7,_49) <= 0
_C646: edgepairs_((6,_7),_(49,_50)) + edgepairs_((7,_8),_(49,_50))
 - nodepairs_(7,_49) - nodepairs_(7,_50) <= 0
_C647: edgepairs_((6,_7),_(50,_51)) + edgepairs_((7,_8),_(50,_51))
 - nodepairs_(7,_50) - nodepairs_(7,_51) <= 0
_C648: edgepairs_((6,_7),_(51,_52)) + edgepairs_((7,_8),_(51,_52))
 - nodepairs_(7,_51) - nodepairs_(7,_52) <= 0
_C649: edgepairs_((6,_7),_(52,_53)) + edgepairs_((7,_8),_(52,_53))
 - nodepairs_(7,_52) - nodepairs_(7,_53) <= 0
_C65: nodepairs_(0,_9) + nodepairs_(1,_9) + nodepairs_(10,_9)
 + nodepairs_(11,_9) + nodepairs_(12,_9) + nodepairs_(13,_9)
 + nodepairs_(14,_9) + nodepairs_(15,_9) + nodepairs_(16,_9)
 + nodepairs_(17,_9) + nodepairs_(18,_9) + nodepairs_(19,_9)
 + nodepairs_(20,_9) + nodepairs_(21,_9) + nodepairs_(22,_9)
 + nodepairs_(23,_9) + nodepairs_(24,_9) + nodepairs_(25,_9)
 + nodepairs_(26,_9) + nodepairs_(28,_9) + nodepairs_(3,_9)
 + nodepairs_(30,_9) + nodepairs_(31,_9) + nodepairs_(32,_9)
 + nodepairs_(33,_9) + nodepairs_(34,_9) + nodepairs_(35,_9)
 + nodepairs_(36,_9) + nodepairs_(37,_9) + nodepairs_(38,_9)
 + nodepairs_(39,_9) + nodepairs_(40,_9) + nodepairs_(41,_9)
 + nodepairs_(42,_9) + nodepairs_(44,_9) + nodepairs_(46,_9)
 + nodepairs_(47,_9) + nodepairs_(48,_9) + nodepairs_(49,_9)
 + nodepairs_(5,_9) + nodepairs_(50,_9) + nodepairs_(51,_9)
 + nodepairs_(52,_9) + nodepairs_(53,_9) + nodepairs_(54,_9)
 + nodepairs_(6,_9) + nodepairs_(7,_9) + nodepairs_(8,_9) + nodepairs_(9,_9)
 <= 1
_C650: edgepairs_((6,_7),_(53,_54)) + edgepairs_((7,_8),_(53,_54))
 - nodepairs_(7,_53) - nodepairs_(7,_54) <= 0
_C651: edgepairs_((7,_8),_(0,_1)) + edgepairs_((8,_9),_(0,_1))
 - nodepairs_(8,_0) - nodepairs_(8,_1) <= 0
_C652: edgepairs_((7,_8),_(0,_17)) + edgepairs_((8,_9),_(0,_17))
 - nodepairs_(8,_0) - nodepairs_(8,_17) <= 0
_C653: - nodepairs_(8,_0) <= 0
_C654: - nodepairs_(8,_1) <= 0
_C655: - nodepairs_(8,_3) <= 0
_C656: - nodepairs_(8,_3) <= 0
_C657: edgepairs_((7,_8),_(3,_5)) + edgepairs_((8,_9),_(3,_5))
 - nodepairs_(8,_3) - nodepairs_(8,_5) <= 0
_C658: edgepairs_((7,_8),_(5,_6)) + edgepairs_((8,_9),_(5,_6))
 - nodepairs_(8,_5) - nodepairs_(8,_6) <= 0
_C659: edgepairs_((7,_8),_(6,_7)) + edgepairs_((8,_9),_(6,_7))
 - nodepairs_(8,_6) - nodepairs_(8,_7) <= 0
_C66: nodepairs_(0,_10) + nodepairs_(1,_10) + nodepairs_(10,_10)
 + nodepairs_(11,_10) + nodepairs_(12,_10) + nodepairs_(13,_10)
 + nodepairs_(14,_10) + nodepairs_(15,_10) + nodepairs_(16,_10)
 + nodepairs_(17,_10) + nodepairs_(18,_10) + nodepairs_(19,_10)
 + nodepairs_(20,_10) + nodepairs_(21,_10) + nodepairs_(22,_10)
 + nodepairs_(23,_10) + nodepairs_(24,_10) + nodepairs_(25,_10)
 + nodepairs_(26,_10) + nodepairs_(28,_10) + nodepairs_(3,_10)
 + nodepairs_(30,_10) + nodepairs_(31,_10) + nodepairs_(32,_10)
 + nodepairs_(33,_10) + nodepairs_(34,_10) + nodepairs_(35,_10)
 + nodepairs_(36,_10) + nodepairs_(37,_10) + nodepairs_(38,_10)
 + nodepairs_(39,_10) + nodepairs_(40,_10) + nodepairs_(41,_10)
 + nodepairs_(42,_10) + nodepairs_(44,_10) + nodepairs_(46,_10)
 + nodepairs_(47,_10) + nodepairs_(48,_10) + nodepairs_(49,_10)
 + nodepairs_(5,_10) + nodepairs_(50,_10) + nodepairs_(51,_10)
 + nodepairs_(52,_10) + nodepairs_(53,_10) + nodepairs_(54,_10)
 + nodepairs_(6,_10) + nodepairs_(7,_10) + nodepairs_(8,_10)
 + nodepairs_(9,_10) <= 1
_C660: edgepairs_((7,_8),_(7,_8)) + edgepairs_((8,_9),_(7,_8))
 - nodepairs_(8,_7) - nodepairs_(8,_8) <= 0
_C661: edgepairs_((7,_8),_(8,_9)) + edgepairs_((8,_9),_(8,_9))
 - nodepairs_(8,_8) - nodepairs_(8,_9) <= 0
_C662: edgepairs_((7,_8),_(9,_10)) + edgepairs_((8,_9),_(9,_10))
 - nodepairs_(8,_10) - nodepairs_(8,_9) <= 0
_C663: edgepairs_((7,_8),_(10,_11)) + edgepairs_((8,_9),_(10,_11))
 - nodepairs_(8,_10) - nodepairs_(8,_11) <= 0
_C664: edgepairs_((7,_8),_(11,_12)) + edgepairs_((8,_9),_(11,_12))
 - nodepairs_(8,_11) - nodepairs_(8,_12) <= 0
_C665: edgepairs_((7,_8),_(12,_13)) + edgepairs_((8,_9),_(12,_13))
 - nodepairs_(8,_12) - nodepairs_(8,_13) <= 0
_C666: edgepairs_((7,_8),_(13,_14)) + edgepairs_((8,_9),_(13,_14))
 - nodepairs_(8,_13) - nodepairs_(8,_14) <= 0
_C667: edgepairs_((7,_8),_(14,_15)) + edgepairs_((8,_9),_(14,_15))
 - nodepairs_(8,_14) - nodepairs_(8,_15) <= 0
_C668: edgepairs_((7,_8),_(15,_16)) + edgepairs_((8,_9),_(15,_16))
 - nodepairs_(8,_15) - nodepairs_(8,_16) <= 0
_C669: - nodepairs_(8,_17) <= 0
_C67: nodepairs_(0,_11) + nodepairs_(1,_11) + nodepairs_(10,_11)
 + nodepairs_(11,_11) + nodepairs_(12,_11) + nodepairs_(13,_11)
 + nodepairs_(14,_11) + nodepairs_(15,_11) + nodepairs_(16,_11)
 + nodepairs_(17,_11) + nodepairs_(18,_11) + nodepairs_(19,_11)
 + nodepairs_(20,_11) + nodepairs_(21,_11) + nodepairs_(22,_11)
 + nodepairs_(23,_11) + nodepairs_(24,_11) + nodepairs_(25,_11)
 + nodepairs_(26,_11) + nodepairs_(28,_11) + nodepairs_(3,_11)
 + nodepairs_(30,_11) + nodepairs_(31,_11) + nodepairs_(32,_11)
 + nodepairs_(33,_11) + nodepairs_(34,_11) + nodepairs_(35,_11)
 + nodepairs_(36,_11) + nodepairs_(37,_11) + nodepairs_(38,_11)
 + nodepairs_(39,_11) + nodepairs_(40,_11) + nodepairs_(41,_11)
 + nodepairs_(42,_11) + nodepairs_(44,_11) + nodepairs_(46,_11)
 + nodepairs_(47,_11) + nodepairs_(48,_11) + nodepairs_(49,_11)
 + nodepairs_(5,_11) + nodepairs_(50,_11) + nodepairs_(51,_11)
 + nodepairs_(52,_11) + nodepairs_(53,_11) + nodepairs_(54,_11)
 + nodepairs_(6,_11) + nodepairs_(7,_11) + nodepairs_(8,_11)
 + nodepairs_(9,_11) <= 1
_C670: - nodepairs_(8,_19) <= 0
_C671: - nodepairs_(8,_19) <= 0
_C672: edgepairs_((7,_8),_(19,_21)) + edgepairs_((8,_9),_(19,_21))
 - nodepairs_(8,_19) - nodepairs_(8,_21) <= 0
_C673: edgepairs_((7,_8),_(21,_22)) + edgepairs_((8,_9),_(21,_22))
 - nodepairs_(8,_21) - nodepairs_(8,_22) <= 0
_C674: edgepairs_((7,_8),_(22,_23)) + edgepairs_((8,_9),_(22,_23))
 - nodepairs_(8,_22) - nodepairs_(8,_23) <= 0
_C675: edgepairs_((7,_8),_(23,_24)) + edgepairs_((8,_9),_(23,_24))
 - nodepairs_(8,_23) - nodepairs_(8,_24) <= 0
_C676: edgepairs_((7,_8),_(24,_25)) + edgepairs_((8,_9),_(24,_25))
 - nodepairs_(8,_24) - nodepairs_(8,_25) <= 0
_C677: edgepairs_((7,_8),_(25,_26)) + edgepairs_((8,_9),_(25,_26))
 - nodepairs_(8,_25) - nodepairs_(8,_26) <= 0
_C678: edgepairs_((7,_8),_(26,_27)) + edgepairs_((8,_9),_(26,_27))
 - nodepairs_(8,_26) - nodepairs_(8,_27) <= 0
_C679: edgepairs_((7,_8),_(27,_28)) + edgepairs_((8,_9),_(27,_28))
 - nodepairs_(8,_27) - nodepairs_(8,_28) <= 0
_C68: nodepairs_(0,_12) + nodepairs_(1,_12) + nodepairs_(10,_12)
 + nodepairs_(11,_12) + nodepairs_(12,_12) + nodepairs_(13,_12)
 + nodepairs_(14,_12) + nodepairs_(15,_12) + nodepairs_(16,_12)
 + nodepairs_(17,_12) + nodepairs_(18,_12) + nodepairs_(19,_12)
 + nodepairs_(20,_12) + nodepairs_(21,_12) + nodepairs_(22,_12)
 + nodepairs_(23,_12) + nodepairs_(24,_12) + nodepairs_(25,_12)
 + nodepairs_(26,_12) + nodepairs_(28,_12) + nodepairs_(3,_12)
 + nodepairs_(30,_12) + nodepairs_(31,_12) + nodepairs_(32,_12)
 + nodepairs_(33,_12) + nodepairs_(34,_12) + nodepairs_(35,_12)
 + nodepairs_(36,_12) + nodepairs_(37,_12) + nodepairs_(38,_12)
 + nodepairs_(39,_12) + nodepairs_(40,_12) + nodepairs_(41,_12)
 + nodepairs_(42,_12) + nodepairs_(44,_12) + nodepairs_(46,_12)
 + nodepairs_(47,_12) + nodepairs_(48,_12) + nodepairs_(49,_12)
 + nodepairs_(5,_12) + nodepairs_(50,_12) + nodepairs_(51,_12)
 + nodepairs_(52,_12) + nodepairs_(53,_12) + nodepairs_(54,_12)
 + nodepairs_(6,_12) + nodepairs_(7,_12) + nodepairs_(8,_12)
 + nodepairs_(9,_12) <= 1
_C680: edgepairs_((7,_8),_(28,_29)) + edgepairs_((8,_9),_(28,_29))
 - nodepairs_(8,_28) - nodepairs_(8,_29) <= 0
_C681: edgepairs_((7,_8),_(29,_30)) + edgepairs_((8,_9),_(29,_30))
 - nodepairs_(8,_29) - nodepairs_(8,_30) <= 0
_C682: edgepairs_((7,_8),_(30,_31)) + edgepairs_((8,_9),_(30,_31))
 - nodepairs_(8,_30) - nodepairs_(8,_31) <= 0
_C683: edgepairs_((7,_8),_(31,_32)) + edgepairs_((8,_9),_(31,_32))
 - nodepairs_(8,_31) - nodepairs_(8,_32) <= 0
_C684: edgepairs_((7,_8),_(32,_33)) + edgepairs_((8,_9),_(32,_33))
 - nodepairs_(8,_32) - nodepairs_(8,_33) <= 0
_C685: edgepairs_((7,_8),_(33,_34)) + edgepairs_((8,_9),_(33,_34))
 - nodepairs_(8,_33) - nodepairs_(8,_34) <= 0
_C686: edgepairs_((7,_8),_(34,_35)) + edgepairs_((8,_9),_(34,_35))
 - nodepairs_(8,_34) - nodepairs_(8,_35) <= 0
_C687: edgepairs_((7,_8),_(35,_36)) + edgepairs_((8,_9),_(35,_36))
 - nodepairs_(8,_35) - nodepairs_(8,_36) <= 0
_C688: edgepairs_((7,_8),_(36,_37)) + edgepairs_((8,_9),_(36,_37))
 - nodepairs_(8,_36) - nodepairs_(8,_37) <= 0
_C689: edgepairs_((7,_8),_(37,_38)) + edgepairs_((8,_9),_(37,_38))
 - nodepairs_(8,_37) - nodepairs_(8,_38) <= 0
_C69: nodepairs_(0,_13) + nodepairs_(1,_13) + nodepairs_(10,_13)
 + nodepairs_(11,_13) + nodepairs_(12,_13) + nodepairs_(13,_13)
 + nodepairs_(14,_13) + nodepairs_(15,_13) + nodepairs_(16,_13)
 + nodepairs_(17,_13) + nodepairs_(18,_13) + nodepairs_(19,_13)
 + nodepairs_(20,_13) + nodepairs_(21,_13) + nodepairs_(22,_13)
 + nodepairs_(23,_13) + nodepairs_(24,_13) + nodepairs_(25,_13)
 + nodepairs_(26,_13) + nodepairs_(28,_13) + nodepairs_(3,_13)
 + nodepairs_(30,_13) + nodepairs_(31,_13) + nodepairs_(32,_13)
 + nodepairs_(33,_13) + nodepairs_(34,_13) + nodepairs_(35,_13)
 + nodepairs_(36,_13) + nodepairs_(37,_13) + nodepairs_(38,_13)
 + nodepairs_(39,_13) + nodepairs_(40,_13) + nodepairs_(41,_13)
 + nodepairs_(42,_13) + nodepairs_(44,_13) + nodepairs_(46,_13)
 + nodepairs_(47,_13) + nodepairs_(48,_13) + nodepairs_(49,_13)
 + nodepairs_(5,_13) + nodepairs_(50,_13) + nodepairs_(51,_13)
 + nodepairs_(52,_13) + nodepairs_(53,_13) + nodepairs_(54,_13)
 + nodepairs_(6,_13) + nodepairs_(7,_13) + nodepairs_(8,_13)
 + nodepairs_(9,_13) <= 1
_C690: edgepairs_((7,_8),_(37,_39)) + edgepairs_((8,_9),_(37,_39))
 - nodepairs_(8,_37) - nodepairs_(8,_39) <= 0
_C691: edgepairs_((7,_8),_(39,_40)) + edgepairs_((8,_9),_(39,_40))
 - nodepairs_(8,_39) - nodepairs_(8,_40) <= 0
_C692: - nodepairs_(8,_42) <= 0
_C693: - nodepairs_(8,_42) <= 0
_C694: edgepairs_((7,_8),_(42,_44)) + edgepairs_((8,_9),_(42,_44))
 - nodepairs_(8,_42) - nodepairs_(8,_44) <= 0
_C695: edgepairs_((7,_8),_(44,_45)) + edgepairs_((8,_9),_(44,_45))
 - nodepairs_(8,_44) - nodepairs_(8,_45) <= 0
_C696: edgepairs_((7,_8),_(45,_46)) + edgepairs_((8,_9),_(45,_46))
 - nodepairs_(8,_45) - nodepairs_(8,_46) <= 0
_C697: edgepairs_((7,_8),_(46,_47)) + edgepairs_((8,_9),_(46,_47))
 - nodepairs_(8,_46) - nodepairs_(8,_47) <= 0
_C698: edgepairs_((7,_8),_(47,_48)) + edgepairs_((8,_9),_(47,_48))
 - nodepairs_(8,_47) - nodepairs_(8,_48) <= 0
_C699: edgepairs_((7,_8),_(48,_49)) + edgepairs_((8,_9),_(48,_49))
 - nodepairs_(8,_48) - nodepairs_(8,_49) <= 0
_C7: nodepairs_(6,_0) + nodepairs_(6,_1) + nodepairs_(6,_10)
 + nodepairs_(6,_11) + nodepairs_(6,_12) + nodepairs_(6,_13)
 + nodepairs_(6,_14) + nodepairs_(6,_15) + nodepairs_(6,_16)
 + nodepairs_(6,_17) + nodepairs_(6,_19) + nodepairs_(6,_21)
 + nodepairs_(6,_22) + nodepairs_(6,_23) + nodepairs_(6,_24)
 + nodepairs_(6,_25) + nodepairs_(6,_26) + nodepairs_(6,_27)
 + nodepairs_(6,_28) + nodepairs_(6,_29) + nodepairs_(6,_3)
 + nodepairs_(6,_30) + nodepairs_(6,_31) + nodepairs_(6,_32)
 + nodepairs_(6,_33) + nodepairs_(6,_34) + nodepairs_(6,_35)
 + nodepairs_(6,_36) + nodepairs_(6,_37) + nodepairs_(6,_38)
 + nodepairs_(6,_39) + nodepairs_(6,_40) + nodepairs_(6,_42)
 + nodepairs_(6,_44) + nodepairs_(6,_45) + nodepairs_(6,_46)
 + nodepairs_(6,_47) + nodepairs_(6,_48) + nodepairs_(6,_49)
 + nodepairs_(6,_5) + nodepairs_(6,_50) + nodepairs_(6,_51)
 + nodepairs_(6,_52) + nodepairs_(6,_53) + nodepairs_(6,_54)
 + nodepairs_(6,_6) + nodepairs_(6,_7) + nodepairs_(6,_8) + nodepairs_(6,_9)
 <= 1
_C70: nodepairs_(0,_14) + nodepairs_(1,_14) + nodepairs_(10,_14)
 + nodepairs_(11,_14) + nodepairs_(12,_14) + nodepairs_(13,_14)
 + nodepairs_(14,_14) + nodepairs_(15,_14) + nodepairs_(16,_14)
 + nodepairs_(17,_14) + nodepairs_(18,_14) + nodepairs_(19,_14)
 + nodepairs_(20,_14) + nodepairs_(21,_14) + nodepairs_(22,_14)
 + nodepairs_(23,_14) + nodepairs_(24,_14) + nodepairs_(25,_14)
 + nodepairs_(26,_14) + nodepairs_(28,_14) + nodepairs_(3,_14)
 + nodepairs_(30,_14) + nodepairs_(31,_14) + nodepairs_(32,_14)
 + nodepairs_(33,_14) + nodepairs_(34,_14) + nodepairs_(35,_14)
 + nodepairs_(36,_14) + nodepairs_(37,_14) + nodepairs_(38,_14)
 + nodepairs_(39,_14) + nodepairs_(40,_14) + nodepairs_(41,_14)
 + nodepairs_(42,_14) + nodepairs_(44,_14) + nodepairs_(46,_14)
 + nodepairs_(47,_14) + nodepairs_(48,_14) + nodepairs_(49,_14)
 + nodepairs_(5,_14) + nodepairs_(50,_14) + nodepairs_(51,_14)
 + nodepairs_(52,_14) + nodepairs_(53,_14) + nodepairs_(54,_14)
 + nodepairs_(6,_14) + nodepairs_(7,_14) + nodepairs_(8,_14)
 + nodepairs_(9,_14) <= 1
_C700: edgepairs_((7,_8),_(49,_50)) + edgepairs_((8,_9),_(49,_50))
 - nodepairs_(8,_49) - nodepairs_(8,_50) <= 0
_C701: edgepairs_((7,_8),_(50,_51)) + edgepairs_((8,_9),_(50,_51))
 - nodepairs_(8,_50) - nodepairs_(8,_51) <= 0
_C702: edgepairs_((7,_8),_(51,_52)) + edgepairs_((8,_9),_(51,_52))
 - nodepairs_(8,_51) - nodepairs_(8,_52) <= 0
_C703: edgepairs_((7,_8),_(52,_53)) + edgepairs_((8,_9),_(52,_53))
 - nodepairs_(8,_52) - nodepairs_(8,_53) <= 0
_C704: edgepairs_((7,_8),_(53,_54)) + edgepairs_((8,_9),_(53,_54))
 - nodepairs_(8,_53) - nodepairs_(8,_54) <= 0
_C705: edgepairs_((8,_9),_(0,_1)) + edgepairs_((9,_10),_(0,_1))
 - nodepairs_(9,_0) - nodepairs_(9,_1) <= 0
_C706: edgepairs_((8,_9),_(0,_17)) + edgepairs_((9,_10),_(0,_17))
 - nodepairs_(9,_0) - nodepairs_(9,_17) <= 0
_C707: - nodepairs_(9,_0) <= 0
_C708: - nodepairs_(9,_1) <= 0
_C709: - nodepairs_(9,_3) <= 0
_C71: nodepairs_(0,_15) + nodepairs_(1,_15) + nodepairs_(10,_15)
 + nodepairs_(11,_15) + nodepairs_(12,_15) + nodepairs_(13,_15)
 + nodepairs_(14,_15) + nodepairs_(15,_15) + nodepairs_(16,_15)
 + nodepairs_(17,_15) + nodepairs_(18,_15) + nodepairs_(19,_15)
 + nodepairs_(20,_15) + nodepairs_(21,_15) + nodepairs_(22,_15)
 + nodepairs_(23,_15) + nodepairs_(24,_15) + nodepairs_(25,_15)
 + nodepairs_(26,_15) + nodepairs_(28,_15) + nodepairs_(3,_15)
 + nodepairs_(30,_15) + nodepairs_(31,_15) + nodepairs_(32,_15)
 + nodepairs_(33,_15) + nodepairs_(34,_15) + nodepairs_(35,_15)
 + nodepairs_(36,_15) + nodepairs_(37,_15) + nodepairs_(38,_15)
 + nodepairs_(39,_15) + nodepairs_(40,_15) + nodepairs_(41,_15)
 + nodepairs_(42,_15) + nodepairs_(44,_15) + nodepairs_(46,_15)
 + nodepairs_(47,_15) + nodepairs_(48,_15) + nodepairs_(49,_15)
 + nodepairs_(5,_15) + nodepairs_(50,_15) + nodepairs_(51,_15)
 + nodepairs_(52,_15) + nodepairs_(53,_15) + nodepairs_(54,_15)
 + nodepairs_(6,_15) + nodepairs_(7,_15) + nodepairs_(8,_15)
 + nodepairs_(9,_15) <= 1
_C710: - nodepairs_(9,_3) <= 0
_C711: edgepairs_((8,_9),_(3,_5)) + edgepairs_((9,_10),_(3,_5))
 - nodepairs_(9,_3) - nodepairs_(9,_5) <= 0
_C712: edgepairs_((8,_9),_(5,_6)) + edgepairs_((9,_10),_(5,_6))
 - nodepairs_(9,_5) - nodepairs_(9,_6) <= 0
_C713: edgepairs_((8,_9),_(6,_7)) + edgepairs_((9,_10),_(6,_7))
 - nodepairs_(9,_6) - nodepairs_(9,_7) <= 0
_C714: edgepairs_((8,_9),_(7,_8)) + edgepairs_((9,_10),_(7,_8))
 - nodepairs_(9,_7) - nodepairs_(9,_8) <= 0
_C715: edgepairs_((8,_9),_(8,_9)) + edgepairs_((9,_10),_(8,_9))
 - nodepairs_(9,_8) - nodepairs_(9,_9) <= 0
_C716: edgepairs_((8,_9),_(9,_10)) + edgepairs_((9,_10),_(9,_10))
 - nodepairs_(9,_10) - nodepairs_(9,_9) <= 0
_C717: edgepairs_((8,_9),_(10,_11)) + edgepairs_((9,_10),_(10,_11))
 - nodepairs_(9,_10) - nodepairs_(9,_11) <= 0
_C718: edgepairs_((8,_9),_(11,_12)) + edgepairs_((9,_10),_(11,_12))
 - nodepairs_(9,_11) - nodepairs_(9,_12) <= 0
_C719: edgepairs_((8,_9),_(12,_13)) + edgepairs_((9,_10),_(12,_13))
 - nodepairs_(9,_12) - nodepairs_(9,_13) <= 0
_C72: nodepairs_(0,_16) + nodepairs_(1,_16) + nodepairs_(10,_16)
 + nodepairs_(11,_16) + nodepairs_(12,_16) + nodepairs_(13,_16)
 + nodepairs_(14,_16) + nodepairs_(15,_16) + nodepairs_(16,_16)
 + nodepairs_(17,_16) + nodepairs_(18,_16) + nodepairs_(19,_16)
 + nodepairs_(20,_16) + nodepairs_(21,_16) + nodepairs_(22,_16)
 + nodepairs_(23,_16) + nodepairs_(24,_16) + nodepairs_(25,_16)
 + nodepairs_(26,_16) + nodepairs_(28,_16) + nodepairs_(3,_16)
 + nodepairs_(30,_16) + nodepairs_(31,_16) + nodepairs_(32,_16)
 + nodepairs_(33,_16) + nodepairs_(34,_16) + nodepairs_(35,_16)
 + nodepairs_(36,_16) + nodepairs_(37,_16) + nodepairs_(38,_16)
 + nodepairs_(39,_16) + nodepairs_(40,_16) + nodepairs_(41,_16)
 + nodepairs_(42,_16) + nodepairs_(44,_16) + nodepairs_(46,_16)
 + nodepairs_(47,_16) + nodepairs_(48,_16) + nodepairs_(49,_16)
 + nodepairs_(5,_16) + nodepairs_(50,_16) + nodepairs_(51,_16)
 + nodepairs_(52,_16) + nodepairs_(53,_16) + nodepairs_(54,_16)
 + nodepairs_(6,_16) + nodepairs_(7,_16) + nodepairs_(8,_16)
 + nodepairs_(9,_16) <= 1
_C720: edgepairs_((8,_9),_(13,_14)) + edgepairs_((9,_10),_(13,_14))
 - nodepairs_(9,_13) - nodepairs_(9,_14) <= 0
_C721: edgepairs_((8,_9),_(14,_15)) + edgepairs_((9,_10),_(14,_15))
 - nodepairs_(9,_14) - nodepairs_(9,_15) <= 0
_C722: edgepairs_((8,_9),_(15,_16)) + edgepairs_((9,_10),_(15,_16))
 - nodepairs_(9,_15) - nodepairs_(9,_16) <= 0
_C723: - nodepairs_(9,_17) <= 0
_C724: - nodepairs_(9,_19) <= 0
_C725: - nodepairs_(9,_19) <= 0
_C726: edgepairs_((8,_9),_(19,_21)) + edgepairs_((9,_10),_(19,_21))
 - nodepairs_(9,_19) - nodepairs_(9,_21) <= 0
_C727: edgepairs_((8,_9),_(21,_22)) + edgepairs_((9,_10),_(21,_22))
 - nodepairs_(9,_21) - nodepairs_(9,_22) <= 0
_C728: edgepairs_((8,_9),_(22,_23)) + edgepairs_((9,_10),_(22,_23))
 - nodepairs_(9,_22) - nodepairs_(9,_23) <= 0
_C729: edgepairs_((8,_9),_(23,_24)) + edgepairs_((9,_10),_(23,_24))
 - nodepairs_(9,_23) - nodepairs_(9,_24) <= 0
_C73: nodepairs_(0,_17) + nodepairs_(1,_17) + nodepairs_(10,_17)
 + nodepairs_(11,_17) + nodepairs_(12,_17) + nodepairs_(13,_17)
 + nodepairs_(14,_17) + nodepairs_(15,_17) + nodepairs_(16,_17)
 + nodepairs_(17,_17) + nodepairs_(18,_17) + nodepairs_(19,_17)
 + nodepairs_(20,_17) + nodepairs_(21,_17) + nodepairs_(22,_17)
 + nodepairs_(23,_17) + nodepairs_(24,_17) + nodepairs_(25,_17)
 + nodepairs_(26,_17) + nodepairs_(28,_17) + nodepairs_(3,_17)
 + nodepairs_(30,_17) + nodepairs_(31,_17) + nodepairs_(32,_17)
 + nodepairs_(33,_17) + nodepairs_(34,_17) + nodepairs_(35,_17)
 + nodepairs_(36,_17) + nodepairs_(37,_17) + nodepairs_(38,_17)
 + nodepairs_(39,_17) + nodepairs_(40,_17) + nodepairs_(41,_17)
 + nodepairs_(42,_17) + nodepairs_(44,_17) + nodepairs_(46,_17)
 + nodepairs_(47,_17) + nodepairs_(48,_17) + nodepairs_(49,_17)
 + nodepairs_(5,_17) + nodepairs_(50,_17) + nodepairs_(51,_17)
 + nodepairs_(52,_17) + nodepairs_(53,_17) + nodepairs_(54,_17)
 + nodepairs_(6,_17) + nodepairs_(7,_17) + nodepairs_(8,_17)
 + nodepairs_(9,_17) <= 1
_C730: edgepairs_((8,_9),_(24,_25)) + edgepairs_((9,_10),_(24,_25))
 - nodepairs_(9,_24) - nodepairs_(9,_25) <= 0
_C731: edgepairs_((8,_9),_(25,_26)) + edgepairs_((9,_10),_(25,_26))
 - nodepairs_(9,_25) - nodepairs_(9,_26) <= 0
_C732: edgepairs_((8,_9),_(26,_27)) + edgepairs_((9,_10),_(26,_27))
 - nodepairs_(9,_26) - nodepairs_(9,_27) <= 0
_C733: edgepairs_((8,_9),_(27,_28)) + edgepairs_((9,_10),_(27,_28))
 - nodepairs_(9,_27) - nodepairs_(9,_28) <= 0
_C734: edgepairs_((8,_9),_(28,_29)) + edgepairs_((9,_10),_(28,_29))
 - nodepairs_(9,_28) - nodepairs_(9,_29) <= 0
_C735: edgepairs_((8,_9),_(29,_30)) + edgepairs_((9,_10),_(29,_30))
 - nodepairs_(9,_29) - nodepairs_(9,_30) <= 0
_C736: edgepairs_((8,_9),_(30,_31)) + edgepairs_((9,_10),_(30,_31))
 - nodepairs_(9,_30) - nodepairs_(9,_31) <= 0
_C737: edgepairs_((8,_9),_(31,_32)) + edgepairs_((9,_10),_(31,_32))
 - nodepairs_(9,_31) - nodepairs_(9,_32) <= 0
_C738: edgepairs_((8,_9),_(32,_33)) + edgepairs_((9,_10),_(32,_33))
 - nodepairs_(9,_32) - nodepairs_(9,_33) <= 0
_C739: edgepairs_((8,_9),_(33,_34)) + edgepairs_((9,_10),_(33,_34))
 - nodepairs_(9,_33) - nodepairs_(9,_34) <= 0
_C74: nodepairs_(2,_18) + nodepairs_(27,_18) + nodepairs_(29,_18)
 + nodepairs_(4,_18) + nodepairs_(43,_18) + nodepairs_(45,_18) <= 1
_C740: edgepairs_((8,_9),_(34,_35)) + edgepairs_((9,_10),_(34,_35))
 - nodepairs_(9,_34) - nodepairs_(9,_35) <= 0
_C741: edgepairs_((8,_9),_(35,_36)) + edgepairs_((9,_10),_(35,_36))
 - nodepairs_(9,_35) - nodepairs_(9,_36) <= 0
_C742: edgepairs_((8,_9),_(36,_37)) + edgepairs_((9,_10),_(36,_37))
 - nodepairs_(9,_36) - nodepairs_(9,_37) <= 0
_C743: edgepairs_((8,_9),_(37,_38)) + edgepairs_((9,_10),_(37,_38))
 - nodepairs_(9,_37) - nodepairs_(9,_38) <= 0
_C744: edgepairs_((8,_9),_(37,_39)) + edgepairs_((9,_10),_(37,_39))
 - nodepairs_(9,_37) - nodepairs_(9,_39) <= 0
_C745: edgepairs_((8,_9),_(39,_40)) + edgepairs_((9,_10),_(39,_40))
 - nodepairs_(9,_39) - nodepairs_(9,_40) <= 0
_C746: - nodepairs_(9,_42) <= 0
_C747: - nodepairs_(9,_42) <= 0
_C748: edgepairs_((8,_9),_(42,_44)) + edgepairs_((9,_10),_(42,_44))
 - nodepairs_(9,_42) - nodepairs_(9,_44) <= 0
_C749: edgepairs_((8,_9),_(44,_45)) + edgepairs_((9,_10),_(44,_45))
 - nodepairs_(9,_44) - nodepairs_(9,_45) <= 0
_C75: nodepairs_(0,_19) + nodepairs_(1,_19) + nodepairs_(10,_19)
 + nodepairs_(11,_19) + nodepairs_(12,_19) + nodepairs_(13,_19)
 + nodepairs_(14,_19) + nodepairs_(15,_19) + nodepairs_(16,_19)
 + nodepairs_(17,_19) + nodepairs_(18,_19) + nodepairs_(19,_19)
 + nodepairs_(20,_19) + nodepairs_(21,_19) + nodepairs_(22,_19)
 + nodepairs_(23,_19) + nodepairs_(24,_19) + nodepairs_(25,_19)
 + nodepairs_(26,_19) + nodepairs_(28,_19) + nodepairs_(3,_19)
 + nodepairs_(30,_19) + nodepairs_(31,_19) + nodepairs_(32,_19)
 + nodepairs_(33,_19) + nodepairs_(34,_19) + nodepairs_(35,_19)
 + nodepairs_(36,_19) + nodepairs_(37,_19) + nodepairs_(38,_19)
 + nodepairs_(39,_19) + nodepairs_(40,_19) + nodepairs_(41,_19)
 + nodepairs_(42,_19) + nodepairs_(44,_19) + nodepairs_(46,_19)
 + nodepairs_(47,_19) + nodepairs_(48,_19) + nodepairs_(49,_19)
 + nodepairs_(5,_19) + nodepairs_(50,_19) + nodepairs_(51,_19)
 + nodepairs_(52,_19) + nodepairs_(53,_19) + nodepairs_(54,_19)
 + nodepairs_(6,_19) + nodepairs_(7,_19) + nodepairs_(8,_19)
 + nodepairs_(9,_19) <= 1
_C750: edgepairs_((8,_9),_(45,_46)) + edgepairs_((9,_10),_(45,_46))
 - nodepairs_(9,_45) - nodepairs_(9,_46) <= 0
_C751: edgepairs_((8,_9),_(46,_47)) + edgepairs_((9,_10),_(46,_47))
 - nodepairs_(9,_46) - nodepairs_(9,_47) <= 0
_C752: edgepairs_((8,_9),_(47,_48)) + edgepairs_((9,_10),_(47,_48))
 - nodepairs_(9,_47) - nodepairs_(9,_48) <= 0
_C753: edgepairs_((8,_9),_(48,_49)) + edgepairs_((9,_10),_(48,_49))
 - nodepairs_(9,_48) - nodepairs_(9,_49) <= 0
_C754: edgepairs_((8,_9),_(49,_50)) + edgepairs_((9,_10),_(49,_50))
 - nodepairs_(9,_49) - nodepairs_(9,_50) <= 0
_C755: edgepairs_((8,_9),_(50,_51)) + edgepairs_((9,_10),_(50,_51))
 - nodepairs_(9,_50) - nodepairs_(9,_51) <= 0
_C756: edgepairs_((8,_9),_(51,_52)) + edgepairs_((9,_10),_(51,_52))
 - nodepairs_(9,_51) - nodepairs_(9,_52) <= 0
_C757: edgepairs_((8,_9),_(52,_53)) + edgepairs_((9,_10),_(52,_53))
 - nodepairs_(9,_52) - nodepairs_(9,_53) <= 0
_C758: edgepairs_((8,_9),_(53,_54)) + edgepairs_((9,_10),_(53,_54))
 - nodepairs_(9,_53) - nodepairs_(9,_54) <= 0
_C759: edgepairs_((10,_11),_(0,_1)) + edgepairs_((9,_10),_(0,_1))
 - nodepairs_(10,_0) - nodepairs_(10,_1) <= 0
_C76: nodepairs_(2,_20) + nodepairs_(27,_20) + nodepairs_(29,_20)
 + nodepairs_(4,_20) + nodepairs_(43,_20) + nodepairs_(45,_20) <= 1
_C760: edgepairs_((10,_11),_(0,_17)) + edgepairs_((9,_10),_(0,_17))
 - nodepairs_(10,_0) - nodepairs_(10,_17) <= 0
_C761: - nodepairs_(10,_0) <= 0
_C762: - nodepairs_(10,_1) <= 0
_C763: - nodepairs_(10,_3) <= 0
_C764: - nodepairs_(10,_3) <= 0
_C765: edgepairs_((10,_11),_(3,_5)) + edgepairs_((9,_10),_(3,_5))
 - nodepairs_(10,_3) - nodepairs_(10,_5) <= 0
_C766: edgepairs_((10,_11),_(5,_6)) + edgepairs_((9,_10),_(5,_6))
 - nodepairs_(10,_5) - nodepairs_(10,_6) <= 0
_C767: edgepairs_((10,_11),_(6,_7)) + edgepairs_((9,_10),_(6,_7))
 - nodepairs_(10,_6) - nodepairs_(10,_7) <= 0
_C768: edgepairs_((10,_11),_(7,_8)) + edgepairs_((9,_10),_(7,_8))
 - nodepairs_(10,_7) - nodepairs_(10,_8) <= 0
_C769: edgepairs_((10,_11),_(8,_9)) + edgepairs_((9,_10),_(8,_9))
 - nodepairs_(10,_8) - nodepairs_(10,_9) <= 0
_C77: nodepairs_(0,_21) + nodepairs_(1,_21) + nodepairs_(10,_21)
 + nodepairs_(11,_21) + nodepairs_(12,_21) + nodepairs_(13,_21)
 + nodepairs_(14,_21) + nodepairs_(15,_21) + nodepairs_(16,_21)
 + nodepairs_(17,_21) + nodepairs_(18,_21) + nodepairs_(19,_21)
 + nodepairs_(20,_21) + nodepairs_(21,_21) + nodepairs_(22,_21)
 + nodepairs_(23,_21) + nodepairs_(24,_21) + nodepairs_(25,_21)
 + nodepairs_(26,_21) + nodepairs_(28,_21) + nodepairs_(3,_21)
 + nodepairs_(30,_21) + nodepairs_(31,_21) + nodepairs_(32,_21)
 + nodepairs_(33,_21) + nodepairs_(34,_21) + nodepairs_(35,_21)
 + nodepairs_(36,_21) + nodepairs_(37,_21) + nodepairs_(38,_21)
 + nodepairs_(39,_21) + nodepairs_(40,_21) + nodepairs_(41,_21)
 + nodepairs_(42,_21) + nodepairs_(44,_21) + nodepairs_(46,_21)
 + nodepairs_(47,_21) + nodepairs_(48,_21) + nodepairs_(49,_21)
 + nodepairs_(5,_21) + nodepairs_(50,_21) + nodepairs_(51,_21)
 + nodepairs_(52,_21) + nodepairs_(53,_21) + nodepairs_(54,_21)
 + nodepairs_(6,_21) + nodepairs_(7,_21) + nodepairs_(8,_21)
 + nodepairs_(9,_21) <= 1
_C770: edgepairs_((10,_11),_(9,_10)) + edgepairs_((9,_10),_(9,_10))
 - nodepairs_(10,_10) - nodepairs_(10,_9) <= 0
_C771: edgepairs_((10,_11),_(10,_11)) + edgepairs_((9,_10),_(10,_11))
 - nodepairs_(10,_10) - nodepairs_(10,_11) <= 0
_C772: edgepairs_((10,_11),_(11,_12)) + edgepairs_((9,_10),_(11,_12))
 - nodepairs_(10,_11) - nodepairs_(10,_12) <= 0
_C773: edgepairs_((10,_11),_(12,_13)) + edgepairs_((9,_10),_(12,_13))
 - nodepairs_(10,_12) - nodepairs_(10,_13) <= 0
_C774: edgepairs_((10,_11),_(13,_14)) + edgepairs_((9,_10),_(13,_14))
 - nodepairs_(10,_13) - nodepairs_(10,_14) <= 0
_C775: edgepairs_((10,_11),_(14,_15)) + edgepairs_((9,_10),_(14,_15))
 - nodepairs_(10,_14) - nodepairs_(10,_15) <= 0
_C776: edgepairs_((10,_11),_(15,_16)) + edgepairs_((9,_10),_(15,_16))
 - nodepairs_(10,_15) - nodepairs_(10,_16) <= 0
_C777: - nodepairs_(10,_17) <= 0
_C778: - nodepairs_(10,_19) <= 0
_C779: - nodepairs_(10,_19) <= 0
_C78: nodepairs_(0,_22) + nodepairs_(1,_22) + nodepairs_(10,_22)
 + nodepairs_(11,_22) + nodepairs_(12,_22) + nodepairs_(13,_22)
 + nodepairs_(14,_22) + nodepairs_(15,_22) + nodepairs_(16,_22)
 + nodepairs_(17,_22) + nodepairs_(18,_22) + nodepairs_(19,_22)
 + nodepairs_(20,_22) + nodepairs_(21,_22) + nodepairs_(22,_22)
 + nodepairs_(23,_22) + nodepairs_(24,_22) + nodepairs_(25,_22)
 + nodepairs_(26,_22) + nodepairs_(28,_22) + nodepairs_(3,_22)
 + nodepairs_(30,_22) + nodepairs_(31,_22) + nodepairs_(32,_22)
 + nodepairs_(33,_22) + nodepairs_(34,_22) + nodepairs_(35,_22)
 + nodepairs_(36,_22) + nodepairs_(37,_22) + nodepairs_(38,_22)
 + nodepairs_(39,_22) + nodepairs_(40,_22) + nodepairs_(41,_22)
 + nodepairs_(42,_22) + nodepairs_(44,_22) + nodepairs_(46,_22)
 + nodepairs_(47,_22) + nodepairs_(48,_22) + nodepairs_(49,_22)
 + nodepairs_(5,_22) + nodepairs_(50,_22) + nodepairs_(51,_22)
 + nodepairs_(52,_22) + nodepairs_(53,_22) + nodepairs_(54,_22)
 + nodepairs_(6,_22) + nodepairs_(7,_22) + nodepairs_(8,_22)
 + nodepairs_(9,_22) <= 1
_C780: edgepairs_((10,_11),_(19,_21)) + edgepairs_((9,_10),_(19,_21))
 - nodepairs_(10,_19) - nodepairs_(10,_21) <= 0
_C781: edgepairs_((10,_11),_(21,_22)) + edgepairs_((9,_10),_(21,_22))
 - nodepairs_(10,_21) - nodepairs_(10,_22) <= 0
_C782: edgepairs_((10,_11),_(22,_23)) + edgepairs_((9,_10),_(22,_23))
 - nodepairs_(10,_22) - nodepairs_(10,_23) <= 0
_C783: edgepairs_((10,_11),_(23,_24)) + edgepairs_((9,_10),_(23,_24))
 - nodepairs_(10,_23) - nodepairs_(10,_24) <= 0
_C784: edgepairs_((10,_11),_(24,_25)) + edgepairs_((9,_10),_(24,_25))
 - nodepairs_(10,_24) - nodepairs_(10,_25) <= 0
_C785: edgepairs_((10,_11),_(25,_26)) + edgepairs_((9,_10),_(25,_26))
 - nodepairs_(10,_25) - nodepairs_(10,_26) <= 0
_C786: edgepairs_((10,_11),_(26,_27)) + edgepairs_((9,_10),_(26,_27))
 - nodepairs_(10,_26) - nodepairs_(10,_27) <= 0
_C787: edgepairs_((10,_11),_(27,_28)) + edgepairs_((9,_10),_(27,_28))
 - nodepairs_(10,_27) - nodepairs_(10,_28) <= 0
_C788: edgepairs_((10,_11),_(28,_29)) + edgepairs_((9,_10),_(28,_29))
 - nodepairs_(10,_28) - nodepairs_(10,_29) <= 0
_C789: edgepairs_((10,_11),_(29,_30)) + edgepairs_((9,_10),_(29,_30))
 - nodepairs_(10,_29) - nodepairs_(10,_30) <= 0
_C79: nodepairs_(0,_23) + nodepairs_(1,_23) + nodepairs_(10,_23)
 + nodepairs_(11,_23) + nodepairs_(12,_23) + nodepairs_(13,_23)
 + nodepairs_(14,_23) + nodepairs_(15,_23) + nodepairs_(16,_23)
 + nodepairs_(17,_23) + nodepairs_(18,_23) + nodepairs_(19,_23)
 + nodepairs_(20,_23) + nodepairs_(21,_23) + nodepairs_(22,_23)
 + nodepairs_(23,_23) + nodepairs_(24,_23) + nodepairs_(25,_23)
 + nodepairs_(26,_23) + nodepairs_(28,_23) + nodepairs_(3,_23)
 + nodepairs_(30,_23) + nodepairs_(31,_23) + nodepairs_(32,_23)
 + nodepairs_(33,_23) + nodepairs_(34,_23) + nodepairs_(35,_23)
 + nodepairs_(36,_23) + nodepairs_(37,_23) + nodepairs_(38,_23)
 + nodepairs_(39,_23) + nodepairs_(40,_23) + nodepairs_(41,_23)
 + nodepairs_(42,_23) + nodepairs_(44,_23) + nodepairs_(46,_23)
 + nodepairs_(47,_23) + nodepairs_(48,_23) + nodepairs_(49,_23)
 + nodepairs_(5,_23) + nodepairs_(50,_23) + nodepairs_(51,_23)
 + nodepairs_(52,_23) + nodepairs_(53,_23) + nodepairs_(54,_23)
 + nodepairs_(6,_23) + nodepairs_(7,_23) + nodepairs_(8,_23)
 + nodepairs_(9,_23) <= 1
_C790: edgepairs_((10,_11),_(30,_31)) + edgepairs_((9,_10),_(30,_31))
 - nodepairs_(10,_30) - nodepairs_(10,_31) <= 0
_C791: edgepairs_((10,_11),_(31,_32)) + edgepairs_((9,_10),_(31,_32))
 - nodepairs_(10,_31) - nodepairs_(10,_32) <= 0
_C792: edgepairs_((10,_11),_(32,_33)) + edgepairs_((9,_10),_(32,_33))
 - nodepairs_(10,_32) - nodepairs_(10,_33) <= 0
_C793: edgepairs_((10,_11),_(33,_34)) + edgepairs_((9,_10),_(33,_34))
 - nodepairs_(10,_33) - nodepairs_(10,_34) <= 0
_C794: edgepairs_((10,_11),_(34,_35)) + edgepairs_((9,_10),_(34,_35))
 - nodepairs_(10,_34) - nodepairs_(10,_35) <= 0
_C795: edgepairs_((10,_11),_(35,_36)) + edgepairs_((9,_10),_(35,_36))
 - nodepairs_(10,_35) - nodepairs_(10,_36) <= 0
_C796: edgepairs_((10,_11),_(36,_37)) + edgepairs_((9,_10),_(36,_37))
 - nodepairs_(10,_36) - nodepairs_(10,_37) <= 0
_C797: edgepairs_((10,_11),_(37,_38)) + edgepairs_((9,_10),_(37,_38))
 - nodepairs_(10,_37) - nodepairs_(10,_38) <= 0
_C798: edgepairs_((10,_11),_(37,_39)) + edgepairs_((9,_10),_(37,_39))
 - nodepairs_(10,_37) - nodepairs_(10,_39) <= 0
_C799: edgepairs_((10,_11),_(39,_40)) + edgepairs_((9,_10),_(39,_40))
 - nodepairs_(10,_39) - nodepairs_(10,_40) <= 0
_C8: nodepairs_(7,_0) + nodepairs_(7,_1) + nodepairs_(7,_10)
 + nodepairs_(7,_11) + nodepairs_(7,_12) + nodepairs_(7,_13)
 + nodepairs_(7,_14) + nodepairs_(7,_15) + nodepairs_(7,_16)
 + nodepairs_(7,_17) + nodepairs_(7,_19) + nodepairs_(7,_21)
 + nodepairs_(7,_22) + nodepairs_(7,_23) + nodepairs_(7,_24)
 + nodepairs_(7,_25) + nodepairs_(7,_26) + nodepairs_(7,_27)
 + nodepairs_(7,_28) + nodepairs_(7,_29) + nodepairs_(7,_3)
 + nodepairs_(7,_30) + nodepairs_(7,_31) + nodepairs_(7,_32)
 + nodepairs_(7,_33) + nodepairs_(7,_34) + nodepairs_(7,_35)
 + nodepairs_(7,_36) + nodepairs_(7,_37) + nodepairs_(7,_38)
 + nodepairs_(7,_39) + nodepairs_(7,_40) + nodepairs_(7,_42)
 + nodepairs_(7,_44) + nodepairs_(7,_45) + nodepairs_(7,_46)
 + nodepairs_(7,_47) + nodepairs_(7,_48) + nodepairs_(7,_49)
 + nodepairs_(7,_5) + nodepairs_(7,_50) + nodepairs_(7,_51)
 + nodepairs_(7,_52) + nodepairs_(7,_53) + nodepairs_(7,_54)
 + nodepairs_(7,_6) + nodepairs_(7,_7) + nodepairs_(7,_8) + nodepairs_(7,_9)
 <= 1
_C80: nodepairs_(0,_24) + nodepairs_(1,_24) + nodepairs_(10,_24)
 + nodepairs_(11,_24) + nodepairs_(12,_24) + nodepairs_(13,_24)
 + nodepairs_(14,_24) + nodepairs_(15,_24) + nodepairs_(16,_24)
 + nodepairs_(17,_24) + nodepairs_(18,_24) + nodepairs_(19,_24)
 + nodepairs_(20,_24) + nodepairs_(21,_24) + nodepairs_(22,_24)
 + nodepairs_(23,_24) + nodepairs_(24,_24) + nodepairs_(25,_24)
 + nodepairs_(26,_24) + nodepairs_(28,_24) + nodepairs_(3,_24)
 + nodepairs_(30,_24) + nodepairs_(31,_24) + nodepairs_(32,_24)
 + nodepairs_(33,_24) + nodepairs_(34,_24) + nodepairs_(35,_24)
 + nodepairs_(36,_24) + nodepairs_(37,_24) + nodepairs_(38,_24)
 + nodepairs_(39,_24) + nodepairs_(40,_24) + nodepairs_(41,_24)
 + nodepairs_(42,_24) + nodepairs_(44,_24) + nodepairs_(46,_24)
 + nodepairs_(47,_24) + nodepairs_(48,_24) + nodepairs_(49,_24)
 + nodepairs_(5,_24) + nodepairs_(50,_24) + nodepairs_(51,_24)
 + nodepairs_(52,_24) + nodepairs_(53,_24) + nodepairs_(54,_24)
 + nodepairs_(6,_24) + nodepairs_(7,_24) + nodepairs_(8,_24)
 + nodepairs_(9,_24) <= 1
_C800: - nodepairs_(10,_42) <= 0
_C801: - nodepairs_(10,_42) <= 0
_C802: edgepairs_((10,_11),_(42,_44)) + edgepairs_((9,_10),_(42,_44))
 - nodepairs_(10,_42) - nodepairs_(10,_44) <= 0
_C803: edgepairs_((10,_11),_(44,_45)) + edgepairs_((9,_10),_(44,_45))
 - nodepairs_(10,_44) - nodepairs_(10,_45) <= 0
_C804: edgepairs_((10,_11),_(45,_46)) + edgepairs_((9,_10),_(45,_46))
 - nodepairs_(10,_45) - nodepairs_(10,_46) <= 0
_C805: edgepairs_((10,_11),_(46,_47)) + edgepairs_((9,_10),_(46,_47))
 - nodepairs_(10,_46) - nodepairs_(10,_47) <= 0
_C806: edgepairs_((10,_11),_(47,_48)) + edgepairs_((9,_10),_(47,_48))
 - nodepairs_(10,_47) - nodepairs_(10,_48) <= 0
_C807: edgepairs_((10,_11),_(48,_49)) + edgepairs_((9,_10),_(48,_49))
 - nodepairs_(10,_48) - nodepairs_(10,_49) <= 0
_C808: edgepairs_((10,_11),_(49,_50)) + edgepairs_((9,_10),_(49,_50))
 - nodepairs_(10,_49) - nodepairs_(10,_50) <= 0
_C809: edgepairs_((10,_11),_(50,_51)) + edgepairs_((9,_10),_(50,_51))
 - nodepairs_(10,_50) - nodepairs_(10,_51) <= 0
_C81: nodepairs_(0,_25) + nodepairs_(1,_25) + nodepairs_(10,_25)
 + nodepairs_(11,_25) + nodepairs_(12,_25) + nodepairs_(13,_25)
 + nodepairs_(14,_25) + nodepairs_(15,_25) + nodepairs_(16,_25)
 + nodepairs_(17,_25) + nodepairs_(18,_25) + nodepairs_(19,_25)
 + nodepairs_(20,_25) + nodepairs_(21,_25) + nodepairs_(22,_25)
 + nodepairs_(23,_25) + nodepairs_(24,_25) + nodepairs_(25,_25)
 + nodepairs_(26,_25) + nodepairs_(28,_25) + nodepairs_(3,_25)
 + nodepairs_(30,_25) + nodepairs_(31,_25) + nodepairs_(32,_25)
 + nodepairs_(33,_25) + nodepairs_(34,_25) + nodepairs_(35,_25)
 + nodepairs_(36,_25) + nodepairs_(37,_25) + nodepairs_(38,_25)
 + nodepairs_(39,_25) + nodepairs_(40,_25) + nodepairs_(41,_25)
 + nodepairs_(42,_25) + nodepairs_(44,_25) + nodepairs_(46,_25)
 + nodepairs_(47,_25) + nodepairs_(48,_25) + nodepairs_(49,_25)
 + nodepairs_(5,_25) + nodepairs_(50,_25) + nodepairs_(51,_25)
 + nodepairs_(52,_25) + nodepairs_(53,_25) + nodepairs_(54,_25)
 + nodepairs_(6,_25) + nodepairs_(7,_25) + nodepairs_(8,_25)
 + nodepairs_(9,_25) <= 1
_C810: edgepairs_((10,_11),_(51,_52)) + edgepairs_((9,_10),_(51,_52))
 - nodepairs_(10,_51) - nodepairs_(10,_52) <= 0
_C811: edgepairs_((10,_11),_(52,_53)) + edgepairs_((9,_10),_(52,_53))
 - nodepairs_(10,_52) - nodepairs_(10,_53) <= 0
_C812: edgepairs_((10,_11),_(53,_54)) + edgepairs_((9,_10),_(53,_54))
 - nodepairs_(10,_53) - nodepairs_(10,_54) <= 0
_C813: edgepairs_((10,_11),_(0,_1)) + edgepairs_((11,_12),_(0,_1))
 - nodepairs_(11,_0) - nodepairs_(11,_1) <= 0
_C814: edgepairs_((10,_11),_(0,_17)) + edgepairs_((11,_12),_(0,_17))
 - nodepairs_(11,_0) - nodepairs_(11,_17) <= 0
_C815: - nodepairs_(11,_0) <= 0
_C816: - nodepairs_(11,_1) <= 0
_C817: - nodepairs_(11,_3) <= 0
_C818: - nodepairs_(11,_3) <= 0
_C819: edgepairs_((10,_11),_(3,_5)) + edgepairs_((11,_12),_(3,_5))
 - nodepairs_(11,_3) - nodepairs_(11,_5) <= 0
_C82: nodepairs_(0,_26) + nodepairs_(1,_26) + nodepairs_(10,_26)
 + nodepairs_(11,_26) + nodepairs_(12,_26) + nodepairs_(13,_26)
 + nodepairs_(14,_26) + nodepairs_(15,_26) + nodepairs_(16,_26)
 + nodepairs_(17,_26) + nodepairs_(18,_26) + nodepairs_(19,_26)
 + nodepairs_(20,_26) + nodepairs_(21,_26) + nodepairs_(22,_26)
 + nodepairs_(23,_26) + nodepairs_(24,_26) + nodepairs_(25,_26)
 + nodepairs_(26,_26) + nodepairs_(28,_26) + nodepairs_(3,_26)
 + nodepairs_(30,_26) + nodepairs_(31,_26) + nodepairs_(32,_26)
 + nodepairs_(33,_26) + nodepairs_(34,_26) + nodepairs_(35,_26)
 + nodepairs_(36,_26) + nodepairs_(37,_26) + nodepairs_(38,_26)
 + nodepairs_(39,_26) + nodepairs_(40,_26) + nodepairs_(41,_26)
 + nodepairs_(42,_26) + nodepairs_(44,_26) + nodepairs_(46,_26)
 + nodepairs_(47,_26) + nodepairs_(48,_26) + nodepairs_(49,_26)
 + nodepairs_(5,_26) + nodepairs_(50,_26) + nodepairs_(51,_26)
 + nodepairs_(52,_26) + nodepairs_(53,_26) + nodepairs_(54,_26)
 + nodepairs_(6,_26) + nodepairs_(7,_26) + nodepairs_(8,_26)
 + nodepairs_(9,_26) <= 1
_C820: edgepairs_((10,_11),_(5,_6)) + edgepairs_((11,_12),_(5,_6))
 - nodepairs_(11,_5) - nodepairs_(11,_6) <= 0
_C821: edgepairs_((10,_11),_(6,_7)) + edgepairs_((11,_12),_(6,_7))
 - nodepairs_(11,_6) - nodepairs_(11,_7) <= 0
_C822: edgepairs_((10,_11),_(7,_8)) + edgepairs_((11,_12),_(7,_8))
 - nodepairs_(11,_7) - nodepairs_(11,_8) <= 0
_C823: edgepairs_((10,_11),_(8,_9)) + edgepairs_((11,_12),_(8,_9))
 - nodepairs_(11,_8) - nodepairs_(11,_9) <= 0
_C824: edgepairs_((10,_11),_(9,_10)) + edgepairs_((11,_12),_(9,_10))
 - nodepairs_(11,_10) - nodepairs_(11,_9) <= 0
_C825: edgepairs_((10,_11),_(10,_11)) + edgepairs_((11,_12),_(10,_11))
 - nodepairs_(11,_10) - nodepairs_(11,_11) <= 0
_C826: edgepairs_((10,_11),_(11,_12)) + edgepairs_((11,_12),_(11,_12))
 - nodepairs_(11,_11) - nodepairs_(11,_12) <= 0
_C827: edgepairs_((10,_11),_(12,_13)) + edgepairs_((11,_12),_(12,_13))
 - nodepairs_(11,_12) - nodepairs_(11,_13) <= 0
_C828: edgepairs_((10,_11),_(13,_14)) + edgepairs_((11,_12),_(13,_14))
 - nodepairs_(11,_13) - nodepairs_(11,_14) <= 0
_C829: edgepairs_((10,_11),_(14,_15)) + edgepairs_((11,_12),_(14,_15))
 - nodepairs_(11,_14) - nodepairs_(11,_15) <= 0
_C83: nodepairs_(0,_27) + nodepairs_(1,_27) + nodepairs_(10,_27)
 + nodepairs_(11,_27) + nodepairs_(12,_27) + nodepairs_(13,_27)
 + nodepairs_(14,_27) + nodepairs_(15,_27) + nodepairs_(16,_27)
 + nodepairs_(17,_27) + nodepairs_(18,_27) + nodepairs_(19,_27)
 + nodepairs_(20,_27) + nodepairs_(21,_27) + nodepairs_(22,_27)
 + nodepairs_(23,_27) + nodepairs_(24,_27) + nodepairs_(25,_27)
 + nodepairs_(26,_27) + nodepairs_(28,_27) + nodepairs_(3,_27)
 + nodepairs_(30,_27) + nodepairs_(31,_27) + nodepairs_(32,_27)
 + nodepairs_(33,_27) + nodepairs_(34,_27) + nodepairs_(35,_27)
 + nodepairs_(36,_27) + nodepairs_(37,_27) + nodepairs_(38,_27)
 + nodepairs_(39,_27) + nodepairs_(40,_27) + nodepairs_(41,_27)
 + nodepairs_(42,_27) + nodepairs_(44,_27) + nodepairs_(46,_27)
 + nodepairs_(47,_27) + nodepairs_(48,_27) + nodepairs_(49,_27)
 + nodepairs_(5,_27) + nodepairs_(50,_27) + nodepairs_(51,_27)
 + nodepairs_(52,_27) + nodepairs_(53,_27) + nodepairs_(54,_27)
 + nodepairs_(6,_27) + nodepairs_(7,_27) + nodepairs_(8,_27)
 + nodepairs_(9,_27) <= 1
_C830: edgepairs_((10,_11),_(15,_16)) + edgepairs_((11,_12),_(15,_16))
 - nodepairs_(11,_15) - nodepairs_(11,_16) <= 0
_C831: - nodepairs_(11,_17) <= 0
_C832: - nodepairs_(11,_19) <= 0
_C833: - nodepairs_(11,_19) <= 0
_C834: edgepairs_((10,_11),_(19,_21)) + edgepairs_((11,_12),_(19,_21))
 - nodepairs_(11,_19) - nodepairs_(11,_21) <= 0
_C835: edgepairs_((10,_11),_(21,_22)) + edgepairs_((11,_12),_(21,_22))
 - nodepairs_(11,_21) - nodepairs_(11,_22) <= 0
_C836: edgepairs_((10,_11),_(22,_23)) + edgepairs_((11,_12),_(22,_23))
 - nodepairs_(11,_22) - nodepairs_(11,_23) <= 0
_C837: edgepairs_((10,_11),_(23,_24)) + edgepairs_((11,_12),_(23,_24))
 - nodepairs_(11,_23) - nodepairs_(11,_24) <= 0
_C838: edgepairs_((10,_11),_(24,_25)) + edgepairs_((11,_12),_(24,_25))
 - nodepairs_(11,_24) - nodepairs_(11,_25) <= 0
_C839: edgepairs_((10,_11),_(25,_26)) + edgepairs_((11,_12),_(25,_26))
 - nodepairs_(11,_25) - nodepairs_(11,_26) <= 0
_C84: nodepairs_(0,_28) + nodepairs_(1,_28) + nodepairs_(10,_28)
 + nodepairs_(11,_28) + nodepairs_(12,_28) + nodepairs_(13,_28)
 + nodepairs_(14,_28) + nodepairs_(15,_28) + nodepairs_(16,_28)
 + nodepairs_(17,_28) + nodepairs_(18,_28) + nodepairs_(19,_28)
 + nodepairs_(20,_28) + nodepairs_(21,_28) + nodepairs_(22,_28)
 + nodepairs_(23,_28) + nodepairs_(24,_28) + nodepairs_(25,_28)
 + nodepairs_(26,_28) + nodepairs_(28,_28) + nodepairs_(3,_28)
 + nodepairs_(30,_28) + nodepairs_(31,_28) + nodepairs_(32,_28)
 + nodepairs_(33,_28) + nodepairs_(34,_28) + nodepairs_(35,_28)
 + nodepairs_(36,_28) + nodepairs_(37,_28) + nodepairs_(38,_28)
 + nodepairs_(39,_28) + nodepairs_(40,_28) + nodepairs_(41,_28)
 + nodepairs_(42,_28) + nodepairs_(44,_28) + nodepairs_(46,_28)
 + nodepairs_(47,_28) + nodepairs_(48,_28) + nodepairs_(49,_28)
 + nodepairs_(5,_28) + nodepairs_(50,_28) + nodepairs_(51,_28)
 + nodepairs_(52,_28) + nodepairs_(53,_28) + nodepairs_(54,_28)
 + nodepairs_(6,_28) + nodepairs_(7,_28) + nodepairs_(8,_28)
 + nodepairs_(9,_28) <= 1
_C840: edgepairs_((10,_11),_(26,_27)) + edgepairs_((11,_12),_(26,_27))
 - nodepairs_(11,_26) - nodepairs_(11,_27) <= 0
_C841: edgepairs_((10,_11),_(27,_28)) + edgepairs_((11,_12),_(27,_28))
 - nodepairs_(11,_27) - nodepairs_(11,_28) <= 0
_C842: edgepairs_((10,_11),_(28,_29)) + edgepairs_((11,_12),_(28,_29))
 - nodepairs_(11,_28) - nodepairs_(11,_29) <= 0
_C843: edgepairs_((10,_11),_(29,_30)) + edgepairs_((11,_12),_(29,_30))
 - nodepairs_(11,_29) - nodepairs_(11,_30) <= 0
_C844: edgepairs_((10,_11),_(30,_31)) + edgepairs_((11,_12),_(30,_31))
 - nodepairs_(11,_30) - nodepairs_(11,_31) <= 0
_C845: edgepairs_((10,_11),_(31,_32)) + edgepairs_((11,_12),_(31,_32))
 - nodepairs_(11,_31) - nodepairs_(11,_32) <= 0
_C846: edgepairs_((10,_11),_(32,_33)) + edgepairs_((11,_12),_(32,_33))
 - nodepairs_(11,_32) - nodepairs_(11,_33) <= 0
_C847: edgepairs_((10,_11),_(33,_34)) + edgepairs_((11,_12),_(33,_34))
 - nodepairs_(11,_33) - nodepairs_(11,_34) <= 0
_C848: edgepairs_((10,_11),_(34,_35)) + edgepairs_((11,_12),_(34,_35))
 - nodepairs_(11,_34) - nodepairs_(11,_35) <= 0
_C849: edgepairs_((10,_11),_(35,_36)) + edgepairs_((11,_12),_(35,_36))
 - nodepairs_(11,_35) - nodepairs_(11,_36) <= 0
_C85: nodepairs_(0,_29) + nodepairs_(1,_29) + nodepairs_(10,_29)
 + nodepairs_(11,_29) + nodepairs_(12,_29) + nodepairs_(13,_29)
 + nodepairs_(14,_29) + nodepairs_(15,_29) + nodepairs_(16,_29)
 + nodepairs_(17,_29) + nodepairs_(18,_29) + nodepairs_(19,_29)
 + nodepairs_(20,_29) + nodepairs_(21,_29) + nodepairs_(22,_29)
 + nodepairs_(23,_29) + nodepairs_(24,_29) + nodepairs_(25,_29)
 + nodepairs_(26,_29) + nodepairs_(28,_29) + nodepairs_(3,_29)
 + nodepairs_(30,_29) + nodepairs_(31,_29) + nodepairs_(32,_29)
 + nodepairs_(33,_29) + nodepairs_(34,_29) + nodepairs_(35,_29)
 + nodepairs_(36,_29) + nodepairs_(37,_29) + nodepairs_(38,_29)
 + nodepairs_(39,_29) + nodepairs_(40,_29) + nodepairs_(41,_29)
 + nodepairs_(42,_29) + nodepairs_(44,_29) + nodepairs_(46,_29)
 + nodepairs_(47,_29) + nodepairs_(48,_29) + nodepairs_(49,_29)
 + nodepairs_(5,_29) + nodepairs_(50,_29) + nodepairs_(51,_29)
 + nodepairs_(52,_29) + nodepairs_(53,_29) + nodepairs_(54,_29)
 + nodepairs_(6,_29) + nodepairs_(7,_29) + nodepairs_(8,_29)
 + nodepairs_(9,_29) <= 1
_C850: edgepairs_((10,_11),_(36,_37)) + edgepairs_((11,_12),_(36,_37))
 - nodepairs_(11,_36) - nodepairs_(11,_37) <= 0
_C851: edgepairs_((10,_11),_(37,_38)) + edgepairs_((11,_12),_(37,_38))
 - nodepairs_(11,_37) - nodepairs_(11,_38) <= 0
_C852: edgepairs_((10,_11),_(37,_39)) + edgepairs_((11,_12),_(37,_39))
 - nodepairs_(11,_37) - nodepairs_(11,_39) <= 0
_C853: edgepairs_((10,_11),_(39,_40)) + edgepairs_((11,_12),_(39,_40))
 - nodepairs_(11,_39) - nodepairs_(11,_40) <= 0
_C854: - nodepairs_(11,_42) <= 0
_C855: - nodepairs_(11,_42) <= 0
_C856: edgepairs_((10,_11),_(42,_44)) + edgepairs_((11,_12),_(42,_44))
 - nodepairs_(11,_42) - nodepairs_(11,_44) <= 0
_C857: edgepairs_((10,_11),_(44,_45)) + edgepairs_((11,_12),_(44,_45))
 - nodepairs_(11,_44) - nodepairs_(11,_45) <= 0
_C858: edgepairs_((10,_11),_(45,_46)) + edgepairs_((11,_12),_(45,_46))
 - nodepairs_(11,_45) - nodepairs_(11,_46) <= 0
_C859: edgepairs_((10,_11),_(46,_47)) + edgepairs_((11,_12),_(46,_47))
 - nodepairs_(11,_46) - nodepairs_(11,_47) <= 0
_C86: nodepairs_(0,_30) + nodepairs_(1,_30) + nodepairs_(10,_30)
 + nodepairs_(11,_30) + nodepairs_(12,_30) + nodepairs_(13,_30)
 + nodepairs_(14,_30) + nodepairs_(15,_30) + nodepairs_(16,_30)
 + nodepairs_(17,_30) + nodepairs_(18,_30) + nodepairs_(19,_30)
 + nodepairs_(20,_30) + nodepairs_(21,_30) + nodepairs_(22,_30)
 + nodepairs_(23,_30) + nodepairs_(24,_30) + nodepairs_(25,_30)
 + nodepairs_(26,_30) + nodepairs_(28,_30) + nodepairs_(3,_30)
 + nodepairs_(30,_30) + nodepairs_(31,_30) + nodepairs_(32,_30)
 + nodepairs_(33,_30) + nodepairs_(34,_30) + nodepairs_(35,_30)
 + nodepairs_(36,_30) + nodepairs_(37,_30) + nodepairs_(38,_30)
 + nodepairs_(39,_30) + nodepairs_(40,_30) + nodepairs_(41,_30)
 + nodepairs_(42,_30) + nodepairs_(44,_30) + nodepairs_(46,_30)
 + nodepairs_(47,_30) + nodepairs_(48,_30) + nodepairs_(49,_30)
 + nodepairs_(5,_30) + nodepairs_(50,_30) + nodepairs_(51,_30)
 + nodepairs_(52,_30) + nodepairs_(53,_30) + nodepairs_(54,_30)
 + nodepairs_(6,_30) + nodepairs_(7,_30) + nodepairs_(8,_30)
 + nodepairs_(9,_30) <= 1
_C860: edgepairs_((10,_11),_(47,_48)) + edgepairs_((11,_12),_(47,_48))
 - nodepairs_(11,_47) - nodepairs_(11,_48) <= 0
_C861: edgepairs_((10,_11),_(48,_49)) + edgepairs_((11,_12),_(48,_49))
 - nodepairs_(11,_48) - nodepairs_(11,_49) <= 0
_C862: edgepairs_((10,_11),_(49,_50)) + edgepairs_((11,_12),_(49,_50))
 - nodepairs_(11,_49) - nodepairs_(11,_50) <= 0
_C863: edgepairs_((10,_11),_(50,_51)) + edgepairs_((11,_12),_(50,_51))
 - nodepairs_(11,_50) - nodepairs_(11,_51) <= 0
_C864: edgepairs_((10,_11),_(51,_52)) + edgepairs_((11,_12),_(51,_52))
 - nodepairs_(11,_51) - nodepairs_(11,_52) <= 0
_C865: edgepairs_((10,_11),_(52,_53)) + edgepairs_((11,_12),_(52,_53))
 - nodepairs_(11,_52) - nodepairs_(11,_53) <= 0
_C866: edgepairs_((10,_11),_(53,_54)) + edgepairs_((11,_12),_(53,_54))
 - nodepairs_(11,_53) - nodepairs_(11,_54) <= 0
_C867: edgepairs_((11,_12),_(0,_1)) + edgepairs_((12,_13),_(0,_1))
 - nodepairs_(12,_0) - nodepairs_(12,_1) <= 0
_C868: edgepairs_((11,_12),_(0,_17)) + edgepairs_((12,_13),_(0,_17))
 - nodepairs_(12,_0) - nodepairs_(12,_17) <= 0
_C869: - nodepairs_(12,_0) <= 0
_C87: nodepairs_(0,_31) + nodepairs_(1,_31) + nodepairs_(10,_31)
 + nodepairs_(11,_31) + nodepairs_(12,_31) + nodepairs_(13,_31)
 + nodepairs_(14,_31) + nodepairs_(15,_31) + nodepairs_(16,_31)
 + nodepairs_(17,_31) + nodepairs_(18,_31) + nodepairs_(19,_31)
 + nodepairs_(20,_31) + nodepairs_(21,_31) + nodepairs_(22,_31)
 + nodepairs_(23,_31) + nodepairs_(24,_31) + nodepairs_(25,_31)
 + nodepairs_(26,_31) + nodepairs_(28,_31) + nodepairs_(3,_31)
 + nodepairs_(30,_31) + nodepairs_(31,_31) + nodepairs_(32,_31)
 + nodepairs_(33,_31) + nodepairs_(34,_31) + nodepairs_(35,_31)
 + nodepairs_(36,_31) + nodepairs_(37,_31) + nodepairs_(38,_31)
 + nodepairs_(39,_31) + nodepairs_(40,_31) + nodepairs_(41,_31)
 + nodepairs_(42,_31) + nodepairs_(44,_31) + nodepairs_(46,_31)
 + nodepairs_(47,_31) + nodepairs_(48,_31) + nodepairs_(49,_31)
 + nodepairs_(5,_31) + nodepairs_(50,_31) + nodepairs_(51,_31)
 + nodepairs_(52,_31) + nodepairs_(53,_31) + nodepairs_(54,_31)
 + nodepairs_(6,_31) + nodepairs_(7,_31) + nodepairs_(8,_31)
 + nodepairs_(9,_31) <= 1
_C870: - nodepairs_(12,_1) <= 0
_C871: - nodepairs_(12,_3) <= 0
_C872: - nodepairs_(12,_3) <= 0
_C873: edgepairs_((11,_12),_(3,_5)) + edgepairs_((12,_13),_(3,_5))
 - nodepairs_(12,_3) - nodepairs_(12,_5) <= 0
_C874: edgepairs_((11,_12),_(5,_6)) + edgepairs_((12,_13),_(5,_6))
 - nodepairs_(12,_5) - nodepairs_(12,_6) <= 0
_C875: edgepairs_((11,_12),_(6,_7)) + edgepairs_((12,_13),_(6,_7))
 - nodepairs_(12,_6) - nodepairs_(12,_7) <= 0
_C876: edgepairs_((11,_12),_(7,_8)) + edgepairs_((12,_13),_(7,_8))
 - nodepairs_(12,_7) - nodepairs_(12,_8) <= 0
_C877: edgepairs_((11,_12),_(8,_9)) + edgepairs_((12,_13),_(8,_9))
 - nodepairs_(12,_8) - nodepairs_(12,_9) <= 0
_C878: edgepairs_((11,_12),_(9,_10)) + edgepairs_((12,_13),_(9,_10))
 - nodepairs_(12,_10) - nodepairs_(12,_9) <= 0
_C879: edgepairs_((11,_12),_(10,_11)) + edgepairs_((12,_13),_(10,_11))
 - nodepairs_(12,_10) - nodepairs_(12,_11) <= 0
_C88: nodepairs_(0,_32) + nodepairs_(1,_32) + nodepairs_(10,_32)
 + nodepairs_(11,_32) + nodepairs_(12,_32) + nodepairs_(13,_32)
 + nodepairs_(14,_32) + nodepairs_(15,_32) + nodepairs_(16,_32)
 + nodepairs_(17,_32) + nodepairs_(18,_32) + nodepairs_(19,_32)
 + nodepairs_(20,_32) + nodepairs_(21,_32) + nodepairs_(22,_32)
 + nodepairs_(23,_32) + nodepairs_(24,_32) + nodepairs_(25,_32)
 + nodepairs_(26,_32) + nodepairs_(28,_32) + nodepairs_(3,_32)
 + nodepairs_(30,_32) + nodepairs_(31,_32) + nodepairs_(32,_32)
 + nodepairs_(33,_32) + nodepairs_(34,_32) + nodepairs_(35,_32)
 + nodepairs_(36,_32) + nodepairs_(37,_32) + nodepairs_(38,_32)
 + nodepairs_(39,_32) + nodepairs_(40,_32) + nodepairs_(41,_32)
 + nodepairs_(42,_32) + nodepairs_(44,_32) + nodepairs_(46,_32)
 + nodepairs_(47,_32) + nodepairs_(48,_32) + nodepairs_(49,_32)
 + nodepairs_(5,_32) + nodepairs_(50,_32) + nodepairs_(51,_32)
 + nodepairs_(52,_32) + nodepairs_(53,_32) + nodepairs_(54,_32)
 + nodepairs_(6,_32) + nodepairs_(7,_32) + nodepairs_(8,_32)
 + nodepairs_(9,_32) <= 1
_C880: edgepairs_((11,_12),_(11,_12)) + edgepairs_((12,_13),_(11,_12))
 - nodepairs_(12,_11) - nodepairs_(12,_12) <= 0
_C881: edgepairs_((11,_12),_(12,_13)) + edgepairs_((12,_13),_(12,_13))
 - nodepairs_(12,_12) - nodepairs_(12,_13) <= 0
_C882: edgepairs_((11,_12),_(13,_14)) + edgepairs_((12,_13),_(13,_14))
 - nodepairs_(12,_13) - nodepairs_(12,_14) <= 0
_C883: edgepairs_((11,_12),_(14,_15)) + edgepairs_((12,_13),_(14,_15))
 - nodepairs_(12,_14) - nodepairs_(12,_15) <= 0
_C884: edgepairs_((11,_12),_(15,_16)) + edgepairs_((12,_13),_(15,_16))
 - nodepairs_(12,_15) - nodepairs_(12,_16) <= 0
_C885: - nodepairs_(12,_17) <= 0
_C886: - nodepairs_(12,_19) <= 0
_C887: - nodepairs_(12,_19) <= 0
_C888: edgepairs_((11,_12),_(19,_21)) + edgepairs_((12,_13),_(19,_21))
 - nodepairs_(12,_19) - nodepairs_(12,_21) <= 0
_C889: edgepairs_((11,_12),_(21,_22)) + edgepairs_((12,_13),_(21,_22))
 - nodepairs_(12,_21) - nodepairs_(12,_22) <= 0
_C89: nodepairs_(0,_33) + nodepairs_(1,_33) + nodepairs_(10,_33)
 + nodepairs_(11,_33) + nodepairs_(12,_33) + nodepairs_(13,_33)
 + nodepairs_(14,_33) + nodepairs_(15,_33) + nodepairs_(16,_33)
 + nodepairs_(17,_33) + nodepairs_(18,_33) + nodepairs_(19,_33)
 + nodepairs_(20,_33) + nodepairs_(21,_33) + nodepairs_(22,_33)
 + nodepairs_(23,_33) + nodepairs_(24,_33) + nodepairs_(25,_33)
 + nodepairs_(26,_33) + nodepairs_(28,_33) + nodepairs_(3,_33)
 + nodepairs_(30,_33) + nodepairs_(31,_33) + nodepairs_(32,_33)
 + nodepairs_(33,_33) + nodepairs_(34,_33) + nodepairs_(35,_33)
 + nodepairs_(36,_33) + nodepairs_(37,_33) + nodepairs_(38,_33)
 + nodepairs_(39,_33) + nodepairs_(40,_33) + nodepairs_(41,_33)
 + nodepairs_(42,_33) + nodepairs_(44,_33) + nodepairs_(46,_33)
 + nodepairs_(47,_33) + nodepairs_(48,_33) + nodepairs_(49,_33)
 + nodepairs_(5,_33) + nodepairs_(50,_33) + nodepairs_(51,_33)
 + nodepairs_(52,_33) + nodepairs_(53,_33) + nodepairs_(54,_33)
 + nodepairs_(6,_33) + nodepairs_(7,_33) + nodepairs_(8,_33)
 + nodepairs_(9,_33) <= 1
_C890: edgepairs_((11,_12),_(22,_23)) + edgepairs_((12,_13),_(22,_23))
 - nodepairs_(12,_22) - nodepairs_(12,_23) <= 0
_C891: edgepairs_((11,_12),_(23,_24)) + edgepairs_((12,_13),_(23,_24))
 - nodepairs_(12,_23) - nodepairs_(12,_24) <= 0
_C892: edgepairs_((11,_12),_(24,_25)) + edgepairs_((12,_13),_(24,_25))
 - nodepairs_(12,_24) - nodepairs_(12,_25) <= 0
_C893: edgepairs_((11,_12),_(25,_26)) + edgepairs_((12,_13),_(25,_26))
 - nodepairs_(12,_25) - nodepairs_(12,_26) <= 0
_C894: edgepairs_((11,_12),_(26,_27)) + edgepairs_((12,_13),_(26,_27))
 - nodepairs_(12,_26) - nodepairs_(12,_27) <= 0
_C895: edgepairs_((11,_12),_(27,_28)) + edgepairs_((12,_13),_(27,_28))
 - nodepairs_(12,_27) - nodepairs_(12,_28) <= 0
_C896: edgepairs_((11,_12),_(28,_29)) + edgepairs_((12,_13),_(28,_29))
 - nodepairs_(12,_28) - nodepairs_(12,_29) <= 0
_C897: edgepairs_((11,_12),_(29,_30)) + edgepairs_((12,_13),_(29,_30))
 - nodepairs_(12,_29) - nodepairs_(12,_30) <= 0
_C898: edgepairs_((11,_12),_(30,_31)) + edgepairs_((12,_13),_(30,_31))
 - nodepairs_(12,_30) - nodepairs_(12,_31) <= 0
_C899: edgepairs_((11,_12),_(31,_32)) + edgepairs_((12,_13),_(31,_32))
 - nodepairs_(12,_31) - nodepairs_(12,_32) <= 0
_C9: nodepairs_(8,_0) + nodepairs_(8,_1) + nodepairs_(8,_10)
 + nodepairs_(8,_11) + nodepairs_(8,_12) + nodepairs_(8,_13)
 + nodepairs_(8,_14) + nodepairs_(8,_15) + nodepairs_(8,_16)
 + nodepairs_(8,_17) + nodepairs_(8,_19) + nodepairs_(8,_21)
 + nodepairs_(8,_22) + nodepairs_(8,_23) + nodepairs_(8,_24)
 + nodepairs_(8,_25) + nodepairs_(8,_26) + nodepairs_(8,_27)
 + nodepairs_(8,_28) + nodepairs_(8,_29) + nodepairs_(8,_3)
 + nodepairs_(8,_30) + nodepairs_(8,_31) + nodepairs_(8,_32)
 + nodepairs_(8,_33) + nodepairs_(8,_34) + nodepairs_(8,_35)
 + nodepairs_(8,_36) + nodepairs_(8,_37) + nodepairs_(8,_38)
 + nodepairs_(8,_39) + nodepairs_(8,_40) + nodepairs_(8,_42)
 + nodepairs_(8,_44) + nodepairs_(8,_45) + nodepairs_(8,_46)
 + nodepairs_(8,_47) + nodepairs_(8,_48) + nodepairs_(8,_49)
 + nodepairs_(8,_5) + nodepairs_(8,_50) + nodepairs_(8,_51)
 + nodepairs_(8,_52) + nodepairs_(8,_53) + nodepairs_(8,_54)
 + nodepairs_(8,_6) + nodepairs_(8,_7) + nodepairs_(8,_8) + nodepairs_(8,_9)
 <= 1
_C90: nodepairs_(0,_34) + nodepairs_(1,_34) + nodepairs_(10,_34)
 + nodepairs_(11,_34) + nodepairs_(12,_34) + nodepairs_(13,_34)
 + nodepairs_(14,_34) + nodepairs_(15,_34) + nodepairs_(16,_34)
 + nodepairs_(17,_34) + nodepairs_(18,_34) + nodepairs_(19,_34)
 + nodepairs_(20,_34) + nodepairs_(21,_34) + nodepairs_(22,_34)
 + nodepairs_(23,_34) + nodepairs_(24,_34) + nodepairs_(25,_34)
 + nodepairs_(26,_34) + nodepairs_(28,_34) + nodepairs_(3,_34)
 + nodepairs_(30,_34) + nodepairs_(31,_34) + nodepairs_(32,_34)
 + nodepairs_(33,_34) + nodepairs_(34,_34) + nodepairs_(35,_34)
 + nodepairs_(36,_34) + nodepairs_(37,_34) + nodepairs_(38,_34)
 + nodepairs_(39,_34) + nodepairs_(40,_34) + nodepairs_(41,_34)
 + nodepairs_(42,_34) + nodepairs_(44,_34) + nodepairs_(46,_34)
 + nodepairs_(47,_34) + nodepairs_(48,_34) + nodepairs_(49,_34)
 + nodepairs_(5,_34) + nodepairs_(50,_34) + nodepairs_(51,_34)
 + nodepairs_(52,_34) + nodepairs_(53,_34) + nodepairs_(54,_34)
 + nodepairs_(6,_34) + nodepairs_(7,_34) + nodepairs_(8,_34)
 + nodepairs_(9,_34) <= 1
_C900: edgepairs_((11,_12),_(32,_33)) + edgepairs_((12,_13),_(32,_33))
 - nodepairs_(12,_32) - nodepairs_(12,_33) <= 0
_C901: edgepairs_((11,_12),_(33,_34)) + edgepairs_((12,_13),_(33,_34))
 - nodepairs_(12,_33) - nodepairs_(12,_34) <= 0
_C902: edgepairs_((11,_12),_(34,_35)) + edgepairs_((12,_13),_(34,_35))
 - nodepairs_(12,_34) - nodepairs_(12,_35) <= 0
_C903: edgepairs_((11,_12),_(35,_36)) + edgepairs_((12,_13),_(35,_36))
 - nodepairs_(12,_35) - nodepairs_(12,_36) <= 0
_C904: edgepairs_((11,_12),_(36,_37)) + edgepairs_((12,_13),_(36,_37))
 - nodepairs_(12,_36) - nodepairs_(12,_37) <= 0
_C905: edgepairs_((11,_12),_(37,_38)) + edgepairs_((12,_13),_(37,_38))
 - nodepairs_(12,_37) - nodepairs_(12,_38) <= 0
_C906: edgepairs_((11,_12),_(37,_39)) + edgepairs_((12,_13),_(37,_39))
 - nodepairs_(12,_37) - nodepairs_(12,_39) <= 0
_C907: edgepairs_((11,_12),_(39,_40)) + edgepairs_((12,_13),_(39,_40))
 - nodepairs_(12,_39) - nodepairs_(12,_40) <= 0
_C908: - nodepairs_(12,_42) <= 0
_C909: - nodepairs_(12,_42) <= 0
_C91: nodepairs_(0,_35) + nodepairs_(1,_35) + nodepairs_(10,_35)
 + nodepairs_(11,_35) + nodepairs_(12,_35) + nodepairs_(13,_35)
 + nodepairs_(14,_35) + nodepairs_(15,_35) + nodepairs_(16,_35)
 + nodepairs_(17,_35) + nodepairs_(18,_35) + nodepairs_(19,_35)
 + nodepairs_(20,_35) + nodepairs_(21,_35) + nodepairs_(22,_35)
 + nodepairs_(23,_35) + nodepairs_(24,_35) + nodepairs_(25,_35)
 + nodepairs_(26,_35) + nodepairs_(28,_35) + nodepairs_(3,_35)
 + nodepairs_(30,_35) + nodepairs_(31,_35) + nodepairs_(32,_35)
 + nodepairs_(33,_35) + nodepairs_(34,_35) + nodepairs_(35,_35)
 + nodepairs_(36,_35) + nodepairs_(37,_35) + nodepairs_(38,_35)
 + nodepairs_(39,_35) + nodepairs_(40,_35) + nodepairs_(41,_35)
 + nodepairs_(42,_35) + nodepairs_(44,_35) + nodepairs_(46,_35)
 + nodepairs_(47,_35) + nodepairs_(48,_35) + nodepairs_(49,_35)
 + nodepairs_(5,_35) + nodepairs_(50,_35) + nodepairs_(51,_35)
 + nodepairs_(52,_35) + nodepairs_(53,_35) + nodepairs_(54,_35)
 + nodepairs_(6,_35) + nodepairs_(7,_35) + nodepairs_(8,_35)
 + nodepairs_(9,_35) <= 1
_C910: edgepairs_((11,_12),_(42,_44)) + edgepairs_((12,_13),_(42,_44))
 - nodepairs_(12,_42) - nodepairs_(12,_44) <= 0
_C911: edgepairs_((11,_12),_(44,_45)) + edgepairs_((12,_13),_(44,_45))
 - nodepairs_(12,_44) - nodepairs_(12,_45) <= 0
_C912: edgepairs_((11,_12),_(45,_46)) + edgepairs_((12,_13),_(45,_46))
 - nodepairs_(12,_45) - nodepairs_(12,_46) <= 0
_C913: edgepairs_((11,_12),_(46,_47)) + edgepairs_((12,_13),_(46,_47))
 - nodepairs_(12,_46) - nodepairs_(12,_47) <= 0
_C914: edgepairs_((11,_12),_(47,_48)) + edgepairs_((12,_13),_(47,_48))
 - nodepairs_(12,_47) - nodepairs_(12,_48) <= 0
_C915: edgepairs_((11,_12),_(48,_49)) + edgepairs_((12,_13),_(48,_49))
 - nodepairs_(12,_48) - nodepairs_(12,_49) <= 0
_C916: edgepairs_((11,_12),_(49,_50)) + edgepairs_((12,_13),_(49,_50))
 - nodepairs_(12,_49) - nodepairs_(12,_50) <= 0
_C917: edgepairs_((11,_12),_(50,_51)) + edgepairs_((12,_13),_(50,_51))
 - nodepairs_(12,_50) - nodepairs_(12,_51) <= 0
_C918: edgepairs_((11,_12),_(51,_52)) + edgepairs_((12,_13),_(51,_52))
 - nodepairs_(12,_51) - nodepairs_(12,_52) <= 0
_C919: edgepairs_((11,_12),_(52,_53)) + edgepairs_((12,_13),_(52,_53))
 - nodepairs_(12,_52) - nodepairs_(12,_53) <= 0
_C92: nodepairs_(0,_36) + nodepairs_(1,_36) + nodepairs_(10,_36)
 + nodepairs_(11,_36) + nodepairs_(12,_36) + nodepairs_(13,_36)
 + nodepairs_(14,_36) + nodepairs_(15,_36) + nodepairs_(16,_36)
 + nodepairs_(17,_36) + nodepairs_(18,_36) + nodepairs_(19,_36)
 + nodepairs_(20,_36) + nodepairs_(21,_36) + nodepairs_(22,_36)
 + nodepairs_(23,_36) + nodepairs_(24,_36) + nodepairs_(25,_36)
 + nodepairs_(26,_36) + nodepairs_(28,_36) + nodepairs_(3,_36)
 + nodepairs_(30,_36) + nodepairs_(31,_36) + nodepairs_(32,_36)
 + nodepairs_(33,_36) + nodepairs_(34,_36) + nodepairs_(35,_36)
 + nodepairs_(36,_36) + nodepairs_(37,_36) + nodepairs_(38,_36)
 + nodepairs_(39,_36) + nodepairs_(40,_36) + nodepairs_(41,_36)
 + nodepairs_(42,_36) + nodepairs_(44,_36) + nodepairs_(46,_36)
 + nodepairs_(47,_36) + nodepairs_(48,_36) + nodepairs_(49,_36)
 + nodepairs_(5,_36) + nodepairs_(50,_36) + nodepairs_(51,_36)
 + nodepairs_(52,_36) + nodepairs_(53,_36) + nodepairs_(54,_36)
 + nodepairs_(6,_36) + nodepairs_(7,_36) + nodepairs_(8,_36)
 + nodepairs_(9,_36) <= 1
_C920: edgepairs_((11,_12),_(53,_54)) + edgepairs_((12,_13),_(53,_54))
 - nodepairs_(12,_53) - nodepairs_(12,_54) <= 0
_C921: edgepairs_((12,_13),_(0,_1)) + edgepairs_((13,_14),_(0,_1))
 - nodepairs_(13,_0) - nodepairs_(13,_1) <= 0
_C922: edgepairs_((12,_13),_(0,_17)) + edgepairs_((13,_14),_(0,_17))
 - nodepairs_(13,_0) - nodepairs_(13,_17) <= 0
_C923: - nodepairs_(13,_0) <= 0
_C924: - nodepairs_(13,_1) <= 0
_C925: - nodepairs_(13,_3) <= 0
_C926: - nodepairs_(13,_3) <= 0
_C927: edgepairs_((12,_13),_(3,_5)) + edgepairs_((13,_14),_(3,_5))
 - nodepairs_(13,_3) - nodepairs_(13,_5) <= 0
_C928: edgepairs_((12,_13),_(5,_6)) + edgepairs_((13,_14),_(5,_6))
 - nodepairs_(13,_5) - nodepairs_(13,_6) <= 0
_C929: edgepairs_((12,_13),_(6,_7)) + edgepairs_((13,_14),_(6,_7))
 - nodepairs_(13,_6) - nodepairs_(13,_7) <= 0
_C93: nodepairs_(0,_37) + nodepairs_(1,_37) + nodepairs_(10,_37)
 + nodepairs_(11,_37) + nodepairs_(12,_37) + nodepairs_(13,_37)
 + nodepairs_(14,_37) + nodepairs_(15,_37) + nodepairs_(16,_37)
 + nodepairs_(17,_37) + nodepairs_(18,_37) + nodepairs_(19,_37)
 + nodepairs_(20,_37) + nodepairs_(21,_37) + nodepairs_(22,_37)
 + nodepairs_(23,_37) + nodepairs_(24,_37) + nodepairs_(25,_37)
 + nodepairs_(26,_37) + nodepairs_(28,_37) + nodepairs_(3,_37)
 + nodepairs_(30,_37) + nodepairs_(31,_37) + nodepairs_(32,_37)
 + nodepairs_(33,_37) + nodepairs_(34,_37) + nodepairs_(35,_37)
 + nodepairs_(36,_37) + nodepairs_(37,_37) + nodepairs_(38,_37)
 + nodepairs_(39,_37) + nodepairs_(40,_37) + nodepairs_(41,_37)
 + nodepairs_(42,_37) + nodepairs_(44,_37) + nodepairs_(46,_37)
 + nodepairs_(47,_37) + nodepairs_(48,_37) + nodepairs_(49,_37)
 + nodepairs_(5,_37) + nodepairs_(50,_37) + nodepairs_(51,_37)
 + nodepairs_(52,_37) + nodepairs_(53,_37) + nodepairs_(54,_37)
 + nodepairs_(6,_37) + nodepairs_(7,_37) + nodepairs_(8,_37)
 + nodepairs_(9,_37) <= 1
_C930: edgepairs_((12,_13),_(7,_8)) + edgepairs_((13,_14),_(7,_8))
 - nodepairs_(13,_7) - nodepairs_(13,_8) <= 0
_C931: edgepairs_((12,_13),_(8,_9)) + edgepairs_((13,_14),_(8,_9))
 - nodepairs_(13,_8) - nodepairs_(13,_9) <= 0
_C932: edgepairs_((12,_13),_(9,_10)) + edgepairs_((13,_14),_(9,_10))
 - nodepairs_(13,_10) - nodepairs_(13,_9) <= 0
_C933: edgepairs_((12,_13),_(10,_11)) + edgepairs_((13,_14),_(10,_11))
 - nodepairs_(13,_10) - nodepairs_(13,_11) <= 0
_C934: edgepairs_((12,_13),_(11,_12)) + edgepairs_((13,_14),_(11,_12))
 - nodepairs_(13,_11) - nodepairs_(13,_12) <= 0
_C935: edgepairs_((12,_13),_(12,_13)) + edgepairs_((13,_14),_(12,_13))
 - nodepairs_(13,_12) - nodepairs_(13,_13) <= 0
_C936: edgepairs_((12,_13),_(13,_14)) + edgepairs_((13,_14),_(13,_14))
 - nodepairs_(13,_13) - nodepairs_(13,_14) <= 0
_C937: edgepairs_((12,_13),_(14,_15)) + edgepairs_((13,_14),_(14,_15))
 - nodepairs_(13,_14) - nodepairs_(13,_15) <= 0
_C938: edgepairs_((12,_13),_(15,_16)) + edgepairs_((13,_14),_(15,_16))
 - nodepairs_(13,_15) - nodepairs_(13,_16) <= 0
_C939: - nodepairs_(13,_17) <= 0
_C94: nodepairs_(0,_38) + nodepairs_(1,_38) + nodepairs_(10,_38)
 + nodepairs_(11,_38) + nodepairs_(12,_38) + nodepairs_(13,_38)
 + nodepairs_(14,_38) + nodepairs_(15,_38) + nodepairs_(16,_38)
 + nodepairs_(17,_38) + nodepairs_(18,_38) + nodepairs_(19,_38)
 + nodepairs_(20,_38) + nodepairs_(21,_38) + nodepairs_(22,_38)
 + nodepairs_(23,_38) + nodepairs_(24,_38) + nodepairs_(25,_38)
 + nodepairs_(26,_38) + nodepairs_(28,_38) + nodepairs_(3,_38)
 + nodepairs_(30,_38) + nodepairs_(31,_38) + nodepairs_(32,_38)
 + nodepairs_(33,_38) + nodepairs_(34,_38) + nodepairs_(35,_38)
 + nodepairs_(36,_38) + nodepairs_(37,_38) + nodepairs_(38,_38)
 + nodepairs_(39,_38) + nodepairs_(40,_38) + nodepairs_(41,_38)
 + nodepairs_(42,_38) + nodepairs_(44,_38) + nodepairs_(46,_38)
 + nodepairs_(47,_38) + nodepairs_(48,_38) + nodepairs_(49,_38)
 + nodepairs_(5,_38) + nodepairs_(50,_38) + nodepairs_(51,_38)
 + nodepairs_(52,_38) + nodepairs_(53,_38) + nodepairs_(54,_38)
 + nodepairs_(6,_38) + nodepairs_(7,_38) + nodepairs_(8,_38)
 + nodepairs_(9,_38) <= 1
_C940: - nodepairs_(13,_19) <= 0
_C941: - nodepairs_(13,_19) <= 0
_C942: edgepairs_((12,_13),_(19,_21)) + edgepairs_((13,_14),_(19,_21))
 - nodepairs_(13,_19) - nodepairs_(13,_21) <= 0
_C943: edgepairs_((12,_13),_(21,_22)) + edgepairs_((13,_14),_(21,_22))
 - nodepairs_(13,_21) - nodepairs_(13,_22) <= 0
_C944: edgepairs_((12,_13),_(22,_23)) + edgepairs_((13,_14),_(22,_23))
 - nodepairs_(13,_22) - nodepairs_(13,_23) <= 0
_C945: edgepairs_((12,_13),_(23,_24)) + edgepairs_((13,_14),_(23,_24))
 - nodepairs_(13,_23) - nodepairs_(13,_24) <= 0
_C946: edgepairs_((12,_13),_(24,_25)) + edgepairs_((13,_14),_(24,_25))
 - nodepairs_(13,_24) - nodepairs_(13,_25) <= 0
_C947: edgepairs_((12,_13),_(25,_26)) + edgepairs_((13,_14),_(25,_26))
 - nodepairs_(13,_25) - nodepairs_(13,_26) <= 0
_C948: edgepairs_((12,_13),_(26,_27)) + edgepairs_((13,_14),_(26,_27))
 - nodepairs_(13,_26) - nodepairs_(13,_27) <= 0
_C949: edgepairs_((12,_13),_(27,_28)) + edgepairs_((13,_14),_(27,_28))
 - nodepairs_(13,_27) - nodepairs_(13,_28) <= 0
_C95: nodepairs_(0,_39) + nodepairs_(1,_39) + nodepairs_(10,_39)
 + nodepairs_(11,_39) + nodepairs_(12,_39) + nodepairs_(13,_39)
 + nodepairs_(14,_39) + nodepairs_(15,_39) + nodepairs_(16,_39)
 + nodepairs_(17,_39) + nodepairs_(18,_39) + nodepairs_(19,_39)
 + nodepairs_(20,_39) + nodepairs_(21,_39) + nodepairs_(22,_39)
 + nodepairs_(23,_39) + nodepairs_(24,_39) + nodepairs_(25,_39)
 + nodepairs_(26,_39) + nodepairs_(28,_39) + nodepairs_(3,_39)
 + nodepairs_(30,_39) + nodepairs_(31,_39) + nodepairs_(32,_39)
 + nodepairs_(33,_39) + nodepairs_(34,_39) + nodepairs_(35,_39)
 + nodepairs_(36,_39) + nodepairs_(37,_39) + nodepairs_(38,_39)
 + nodepairs_(39,_39) + nodepairs_(40,_39) + nodepairs_(41,_39)
 + nodepairs_(42,_39) + nodepairs_(44,_39) + nodepairs_(46,_39)
 + nodepairs_(47,_39) + nodepairs_(48,_39) + nodepairs_(49,_39)
 + nodepairs_(5,_39) + nodepairs_(50,_39) + nodepairs_(51,_39)
 + nodepairs_(52,_39) + nodepairs_(53,_39) + nodepairs_(54,_39)
 + nodepairs_(6,_39) + nodepairs_(7,_39) + nodepairs_(8,_39)
 + nodepairs_(9,_39) <= 1
_C950: edgepairs_((12,_13),_(28,_29)) + edgepairs_((13,_14),_(28,_29))
 - nodepairs_(13,_28) - nodepairs_(13,_29) <= 0
_C951: edgepairs_((12,_13),_(29,_30)) + edgepairs_((13,_14),_(29,_30))
 - nodepairs_(13,_29) - nodepairs_(13,_30) <= 0
_C952: edgepairs_((12,_13),_(30,_31)) + edgepairs_((13,_14),_(30,_31))
 - nodepairs_(13,_30) - nodepairs_(13,_31) <= 0
_C953: edgepairs_((12,_13),_(31,_32)) + edgepairs_((13,_14),_(31,_32))
 - nodepairs_(13,_31) - nodepairs_(13,_32) <= 0
_C954: edgepairs_((12,_13),_(32,_33)) + edgepairs_((13,_14),_(32,_33))
 - nodepairs_(13,_32) - nodepairs_(13,_33) <= 0
_C955: edgepairs_((12,_13),_(33,_34)) + edgepairs_((13,_14),_(33,_34))
 - nodepairs_(13,_33) - nodepairs_(13,_34) <= 0
_C956: edgepairs_((12,_13),_(34,_35)) + edgepairs_((13,_14),_(34,_35))
 - nodepairs_(13,_34) - nodepairs_(13,_35) <= 0
_C957: edgepairs_((12,_13),_(35,_36)) + edgepairs_((13,_14),_(35,_36))
 - nodepairs_(13,_35) - nodepairs_(13,_36) <= 0
_C958: edgepairs_((12,_13),_(36,_37)) + edgepairs_((13,_14),_(36,_37))
 - nodepairs_(13,_36) - nodepairs_(13,_37) <= 0
_C959: edgepairs_((12,_13),_(37,_38)) + edgepairs_((13,_14),_(37,_38))
 - nodepairs_(13,_37) - nodepairs_(13,_38) <= 0
_C96: nodepairs_(0,_40) + nodepairs_(1,_40) + nodepairs_(10,_40)
 + nodepairs_(11,_40) + nodepairs_(12,_40) + nodepairs_(13,_40)
 + nodepairs_(14,_40) + nodepairs_(15,_40) + nodepairs_(16,_40)
 + nodepairs_(17,_40) + nodepairs_(18,_40) + nodepairs_(19,_40)
 + nodepairs_(20,_40) + nodepairs_(21,_40) + nodepairs_(22,_40)
 + nodepairs_(23,_40) + nodepairs_(24,_40) + nodepairs_(25,_40)
 + nodepairs_(26,_40) + nodepairs_(28,_40) + nodepairs_(3,_40)
 + nodepairs_(30,_40) + nodepairs_(31,_40) + nodepairs_(32,_40)
 + nodepairs_(33,_40) + nodepairs_(34,_40) + nodepairs_(35,_40)
 + nodepairs_(36,_40) + nodepairs_(37,_40) + nodepairs_(38,_40)
 + nodepairs_(39,_40) + nodepairs_(40,_40) + nodepairs_(41,_40)
 + nodepairs_(42,_40) + nodepairs_(44,_40) + nodepairs_(46,_40)
 + nodepairs_(47,_40) + nodepairs_(48,_40) + nodepairs_(49,_40)
 + nodepairs_(5,_40) + nodepairs_(50,_40) + nodepairs_(51,_40)
 + nodepairs_(52,_40) + nodepairs_(53,_40) + nodepairs_(54,_40)
 + nodepairs_(6,_40) + nodepairs_(7,_40) + nodepairs_(8,_40)
 + nodepairs_(9,_40) <= 1
_C960: edgepairs_((12,_13),_(37,_39)) + edgepairs_((13,_14),_(37,_39))
 - nodepairs_(13,_37) - nodepairs_(13,_39) <= 0
_C961: edgepairs_((12,_13),_(39,_40)) + edgepairs_((13,_14),_(39,_40))
 - nodepairs_(13,_39) - nodepairs_(13,_40) <= 0
_C962: - nodepairs_(13,_42) <= 0
_C963: - nodepairs_(13,_42) <= 0
_C964: edgepairs_((12,_13),_(42,_44)) + edgepairs_((13,_14),_(42,_44))
 - nodepairs_(13,_42) - nodepairs_(13,_44) <= 0
_C965: edgepairs_((12,_13),_(44,_45)) + edgepairs_((13,_14),_(44,_45))
 - nodepairs_(13,_44) - nodepairs_(13,_45) <= 0
_C966: edgepairs_((12,_13),_(45,_46)) + edgepairs_((13,_14),_(45,_46))
 - nodepairs_(13,_45) - nodepairs_(13,_46) <= 0
_C967: edgepairs_((12,_13),_(46,_47)) + edgepairs_((13,_14),_(46,_47))
 - nodepairs_(13,_46) - nodepairs_(13,_47) <= 0
_C968: edgepairs_((12,_13),_(47,_48)) + edgepairs_((13,_14),_(47,_48))
 - nodepairs_(13,_47) - nodepairs_(13,_48) <= 0
_C969: edgepairs_((12,_13),_(48,_49)) + edgepairs_((13,_14),_(48,_49))
 - nodepairs_(13,_48) - nodepairs_(13,_49) <= 0
_C97: nodepairs_(2,_41) + nodepairs_(27,_41) + nodepairs_(29,_41)
 + nodepairs_(4,_41) + nodepairs_(43,_41) + nodepairs_(45,_41) <= 1
_C970: edgepairs_((12,_13),_(49,_50)) + edgepairs_((13,_14),_(49,_50))
 - nodepairs_(13,_49) - nodepairs_(13,_50) <= 0
_C971: edgepairs_((12,_13),_(50,_51)) + edgepairs_((13,_14),_(50,_51))
 - nodepairs_(13,_50) - nodepairs_(13,_51) <= 0
_C972: edgepairs_((12,_13),_(51,_52)) + edgepairs_((13,_14),_(51,_52))
 - nodepairs_(13,_51) - nodepairs_(13,_52) <= 0
_C973: edgepairs_((12,_13),_(52,_53)) + edgepairs_((13,_14),_(52,_53))
 - nodepairs_(13,_52) - nodepairs_(13,_53) <= 0
_C974: edgepairs_((12,_13),_(53,_54)) + edgepairs_((13,_14),_(53,_54))
 - nodepairs_(13,_53) - nodepairs_(13,_54) <= 0
_C975: edgepairs_((13,_14),_(0,_1)) + edgepairs_((14,_15),_(0,_1))
 - nodepairs_(14,_0) - nodepairs_(14,_1) <= 0
_C976: edgepairs_((13,_14),_(0,_17)) + edgepairs_((14,_15),_(0,_17))
 - nodepairs_(14,_0) - nodepairs_(14,_17) <= 0
_C977: - nodepairs_(14,_0) <= 0
_C978: - nodepairs_(14,_1) <= 0
_C979: - nodepairs_(14,_3) <= 0
_C98: nodepairs_(0,_42) + nodepairs_(1,_42) + nodepairs_(10,_42)
 + nodepairs_(11,_42) + nodepairs_(12,_42) + nodepairs_(13,_42)
 + nodepairs_(14,_42) + nodepairs_(15,_42) + nodepairs_(16,_42)
 + nodepairs_(17,_42) + nodepairs_(18,_42) + nodepairs_(19,_42)
 + nodepairs_(20,_42) + nodepairs_(21,_42) + nodepairs_(22,_42)
 + nodepairs_(23,_42) + nodepairs_(24,_42) + nodepairs_(25,_42)
 + nodepairs_(26,_42) + nodepairs_(28,_42) + nodepairs_(3,_42)
 + nodepairs_(30,_42) + nodepairs_(31,_42) + nodepairs_(32,_42)
 + nodepairs_(33,_42) + nodepairs_(34,_42) + nodepairs_(35,_42)
 + nodepairs_(36,_42) + nodepairs_(37,_42) + nodepairs_(38,_42)
 + nodepairs_(39,_42) + nodepairs_(40,_42) + nodepairs_(41,_42)
 + nodepairs_(42,_42) + nodepairs_(44,_42) + nodepairs_(46,_42)
 + nodepairs_(47,_42) + nodepairs_(48,_42) + nodepairs_(49,_42)
 + nodepairs_(5,_42) + nodepairs_(50,_42) + nodepairs_(51,_42)
 + nodepairs_(52,_42) + nodepairs_(53,_42) + nodepairs_(54,_42)
 + nodepairs_(6,_42) + nodepairs_(7,_42) + nodepairs_(8,_42)
 + nodepairs_(9,_42) <= 1
_C980: - nodepairs_(14,_3) <= 0
_C981: edgepairs_((13,_14),_(3,_5)) + edgepairs_((14,_15),_(3,_5))
 - nodepairs_(14,_3) - nodepairs_(14,_5) <= 0
_C982: edgepairs_((13,_14),_(5,_6)) + edgepairs_((14,_15),_(5,_6))
 - nodepairs_(14,_5) - nodepairs_(14,_6) <= 0
_C983: edgepairs_((13,_14),_(6,_7)) + edgepairs_((14,_15),_(6,_7))
 - nodepairs_(14,_6) - nodepairs_(14,_7) <= 0
_C984: edgepairs_((13,_14),_(7,_8)) + edgepairs_((14,_15),_(7,_8))
 - nodepairs_(14,_7) - nodepairs_(14,_8) <= 0
_C985: edgepairs_((13,_14),_(8,_9)) + edgepairs_((14,_15),_(8,_9))
 - nodepairs_(14,_8) - nodepairs_(14,_9) <= 0
_C986: edgepairs_((13,_14),_(9,_10)) + edgepairs_((14,_15),_(9,_10))
 - nodepairs_(14,_10) - nodepairs_(14,_9) <= 0
_C987: edgepairs_((13,_14),_(10,_11)) + edgepairs_((14,_15),_(10,_11))
 - nodepairs_(14,_10) - nodepairs_(14,_11) <= 0
_C988: edgepairs_((13,_14),_(11,_12)) + edgepairs_((14,_15),_(11,_12))
 - nodepairs_(14,_11) - nodepairs_(14,_12) <= 0
_C989: edgepairs_((13,_14),_(12,_13)) + edgepairs_((14,_15),_(12,_13))
 - nodepairs_(14,_12) - nodepairs_(14,_13) <= 0
_C99: nodepairs_(2,_43) + nodepairs_(27,_43) + nodepairs_(29,_43)
 + nodepairs_(4,_43) + nodepairs_(43,_43) + nodepairs_(45,_43) <= 1
_C990: edgepairs_((13,_14),_(13,_14)) + edgepairs_((14,_15),_(13,_14))
 - nodepairs_(14,_13) - nodepairs_(14,_14) <= 0
_C991: edgepairs_((13,_14),_(14,_15)) + edgepairs_((14,_15),_(14,_15))
 - nodepairs_(14,_14) - nodepairs_(14,_15) <= 0
_C992: edgepairs_((13,_14),_(15,_16)) + edgepairs_((14,_15),_(15,_16))
 - nodepairs_(14,_15) - nodepairs_(14,_16) <= 0
_C993: - nodepairs_(14,_17) <= 0
_C994: - nodepairs_(14,_19) <= 0
_C995: - nodepairs_(14,_19) <= 0
_C996: edgepairs_((13,_14),_(19,_21)) + edgepairs_((14,_15),_(19,_21))
 - nodepairs_(14,_19) - nodepairs_(14,_21) <= 0
_C997: edgepairs_((13,_14),_(21,_22)) + edgepairs_((14,_15),_(21,_22))
 - nodepairs_(14,_21) - nodepairs_(14,_22) <= 0
_C998: edgepairs_((13,_14),_(22,_23)) + edgepairs_((14,_15),_(22,_23))
 - nodepairs_(14,_22) - nodepairs_(14,_23) <= 0
_C999: edgepairs_((13,_14),_(23,_24)) + edgepairs_((14,_15),_(23,_24))
 - nodepairs_(14,_23) - nodepairs_(14,_24) <= 0
Binaries
edgepairs_((0,_1),_(0,_1))
edgepairs_((0,_1),_(0,_17))
edgepairs_((0,_1),_(10,_11))
edgepairs_((0,_1),_(11,_12))
edgepairs_((0,_1),_(12,_13))
edgepairs_((0,_1),_(13,_14))
edgepairs_((0,_1),_(14,_15))
edgepairs_((0,_1),_(15,_16))
edgepairs_((0,_1),_(19,_21))
edgepairs_((0,_1),_(21,_22))
edgepairs_((0,_1),_(22,_23))
edgepairs_((0,_1),_(23,_24))
edgepairs_((0,_1),_(24,_25))
edgepairs_((0,_1),_(25,_26))
edgepairs_((0,_1),_(26,_27))
edgepairs_((0,_1),_(27,_28))
edgepairs_((0,_1),_(28,_29))
edgepairs_((0,_1),_(29,_30))
edgepairs_((0,_1),_(3,_5))
edgepairs_((0,_1),_(30,_31))
edgepairs_((0,_1),_(31,_32))
edgepairs_((0,_1),_(32,_33))
edgepairs_((0,_1),_(33,_34))
edgepairs_((0,_1),_(34,_35))
edgepairs_((0,_1),_(35,_36))
edgepairs_((0,_1),_(36,_37))
edgepairs_((0,_1),_(37,_38))
edgepairs_((0,_1),_(37,_39))
edgepairs_((0,_1),_(39,_40))
edgepairs_((0,_1),_(42,_44))
edgepairs_((0,_1),_(44,_45))
edgepairs_((0,_1),_(45,_46))
edgepairs_((0,_1),_(46,_47))
edgepairs_((0,_1),_(47,_48))
edgepairs_((0,_1),_(48,_49))
edgepairs_((0,_1),_(49,_50))
edgepairs_((0,_1),_(5,_6))
edgepairs_((0,_1),_(50,_51))
edgepairs_((0,_1),_(51,_52))
edgepairs_((0,_1),_(52,_53))
edgepairs_((0,_1),_(53,_54))
edgepairs_((0,_1),_(6,_7))
edgepairs_((0,_1),_(7,_8))
edgepairs_((0,_1),_(8,_9))
edgepairs_((0,_1),_(9,_10))
edgepairs_((0,_1),__1)
edgepairs_((0,_26),_(0,_1))
edgepairs_((0,_26),_(0,_17))
edgepairs_((0,_26),_(10,_11))
edgepairs_((0,_26),_(11,_12))
edgepairs_((0,_26),_(12,_13))
edgepairs_((0,_26),_(13,_14))
edgepairs_((0,_26),_(14,_15))
edgepairs_((0,_26),_(15,_16))
edgepairs_((0,_26),_(19,_21))
edgepairs_((0,_26),_(21,_22))
edgepairs_((0,_26),_(22,_23))
edgepairs_((0,_26),_(23,_24))
edgepairs_((0,_26),_(24,_25))
edgepairs_((0,_26),_(25,_26))
edgepairs_((0,_26),_(26,_27))
edgepairs_((0,_26),_(27,_28))
edgepairs_((0,_26),_(28,_29))
edgepairs_((0,_26),_(29,_30))
edgepairs_((0,_26),_(3,_5))
edgepairs_((0,_26),_(30,_31))
edgepairs_((0,_26),_(31,_32))
edgepairs_((0,_26),_(32,_33))
edgepairs_((0,_26),_(33,_34))
edgepairs_((0,_26),_(34,_35))
edgepairs_((0,_26),_(35,_36))
edgepairs_((0,_26),_(36,_37))
edgepairs_((0,_26),_(37,_38))
edgepairs_((0,_26),_(37,_39))
edgepairs_((0,_26),_(39,_40))
edgepairs_((0,_26),_(42,_44))
edgepairs_((0,_26),_(44,_45))
edgepairs_((0,_26),_(45,_46))
edgepairs_((0,_26),_(46,_47))
edgepairs_((0,_26),_(47,_48))
edgepairs_((0,_26),_(48,_49))
edgepairs_((0,_26),_(49,_50))
edgepairs_((0,_26),_(5,_6))
edgepairs_((0,_26),_(50,_51))
edgepairs_((0,_26),_(51,_52))
edgepairs_((0,_26),_(52,_53))
edgepairs_((0,_26),_(53,_54))
edgepairs_((0,_26),_(6,_7))
edgepairs_((0,_26),_(7,_8))
edgepairs_((0,_26),_(8,_9))
edgepairs_((0,_26),_(9,_10))
edgepairs_((0,_26),__1)
edgepairs_((0,_43),_(0,_41))
edgepairs_((0,_43),_(1,_2))
edgepairs_((0,_43),_(17,_18))
edgepairs_((0,_43),_(18,_19))
edgepairs_((0,_43),_(19,_20))
edgepairs_((0,_43),_(2,_3))
edgepairs_((0,_43),_(3,_4))
edgepairs_((0,_43),_(41,_42))
edgepairs_((0,_43),_(42,_43))
edgepairs_((0,_43),__1)
edgepairs_((1,_2),_(0,_41))
edgepairs_((1,_2),_(1,_2))
edgepairs_((1,_2),_(17,_18))
edgepairs_((1,_2),_(18,_19))
edgepairs_((1,_2),_(19,_20))
edgepairs_((1,_2),_(2,_3))
edgepairs_((1,_2),_(3,_4))
edgepairs_((1,_2),_(41,_42))
edgepairs_((1,_2),_(42,_43))
edgepairs_((1,_2),__1)
edgepairs_((10,_11),_(0,_1))
edgepairs_((10,_11),_(0,_17))
edgepairs_((10,_11),_(10,_11))
edgepairs_((10,_11),_(11,_12))
edgepairs_((10,_11),_(12,_13))
edgepairs_((10,_11),_(13,_14))
edgepairs_((10,_11),_(14,_15))
edgepairs_((10,_11),_(15,_16))
edgepairs_((10,_11),_(19,_21))
edgepairs_((10,_11),_(21,_22))
edgepairs_((10,_11),_(22,_23))
edgepairs_((10,_11),_(23,_24))
edgepairs_((10,_11),_(24,_25))
edgepairs_((10,_11),_(25,_26))
edgepairs_((10,_11),_(26,_27))
edgepairs_((10,_11),_(27,_28))
edgepairs_((10,_11),_(28,_29))
edgepairs_((10,_11),_(29,_30))
edgepairs_((10,_11),_(3,_5))
edgepairs_((10,_11),_(30,_31))
edgepairs_((10,_11),_(31,_32))
edgepairs_((10,_11),_(32,_33))
edgepairs_((10,_11),_(33,_34))
edgepairs_((10,_11),_(34,_35))
edgepairs_((10,_11),_(35,_36))
edgepairs_((10,_11),_(36,_37))
edgepairs_((10,_11),_(37,_38))
edgepairs_((10,_11),_(37,_39))
edgepairs_((10,_11),_(39,_40))
edgepairs_((10,_11),_(42,_44))
edgepairs_((10,_11),_(44,_45))
edgepairs_((10,_11),_(45,_46))
edgepairs_((10,_11),_(46,_47))
edgepairs_((10,_11),_(47,_48))
edgepairs_((10,_11),_(48,_49))
edgepairs_((10,_11),_(49,_50))
edgepairs_((10,_11),_(5,_6))
edgepairs_((10,_11),_(50,_51))
edgepairs_((10,_11),_(51,_52))
edgepairs_((10,_11),_(52,_53))
edgepairs_((10,_11),_(53,_54))
edgepairs_((10,_11),_(6,_7))
edgepairs_((10,_11),_(7,_8))
edgepairs_((10,_11),_(8,_9))
edgepairs_((10,_11),_(9,_10))
edgepairs_((10,_11),__1)
edgepairs_((11,_12),_(0,_1))
edgepairs_((11,_12),_(0,_17))
edgepairs_((11,_12),_(10,_11))
edgepairs_((11,_12),_(11,_12))
edgepairs_((11,_12),_(12,_13))
edgepairs_((11,_12),_(13,_14))
edgepairs_((11,_12),_(14,_15))
edgepairs_((11,_12),_(15,_16))
edgepairs_((11,_12),_(19,_21))
edgepairs_((11,_12),_(21,_22))
edgepairs_((11,_12),_(22,_23))
edgepairs_((11,_12),_(23,_24))
edgepairs_((11,_12),_(24,_25))
edgepairs_((11,_12),_(25,_26))
edgepairs_((11,_12),_(26,_27))
edgepairs_((11,_12),_(27,_28))
edgepairs_((11,_12),_(28,_29))
edgepairs_((11,_12),_(29,_30))
edgepairs_((11,_12),_(3,_5))
edgepairs_((11,_12),_(30,_31))
edgepairs_((11,_12),_(31,_32))
edgepairs_((11,_12),_(32,_33))
edgepairs_((11,_12),_(33,_34))
edgepairs_((11,_12),_(34,_35))
edgepairs_((11,_12),_(35,_36))
edgepairs_((11,_12),_(36,_37))
edgepairs_((11,_12),_(37,_38))
edgepairs_((11,_12),_(37,_39))
edgepairs_((11,_12),_(39,_40))
edgepairs_((11,_12),_(42,_44))
edgepairs_((11,_12),_(44,_45))
edgepairs_((11,_12),_(45,_46))
edgepairs_((11,_12),_(46,_47))
edgepairs_((11,_12),_(47,_48))
edgepairs_((11,_12),_(48,_49))
edgepairs_((11,_12),_(49,_50))
edgepairs_((11,_12),_(5,_6))
edgepairs_((11,_12),_(50,_51))
edgepairs_((11,_12),_(51,_52))
edgepairs_((11,_12),_(52,_53))
edgepairs_((11,_12),_(53,_54))
edgepairs_((11,_12),_(6,_7))
edgepairs_((11,_12),_(7,_8))
edgepairs_((11,_12),_(8,_9))
edgepairs_((11,_12),_(9,_10))
edgepairs_((11,_12),__1)
edgepairs_((12,_13),_(0,_1))
edgepairs_((12,_13),_(0,_17))
edgepairs_((12,_13),_(10,_11))
edgepairs_((12,_13),_(11,_12))
edgepairs_((12,_13),_(12,_13))
edgepairs_((12,_13),_(13,_14))
edgepairs_((12,_13),_(14,_15))
edgepairs_((12,_13),_(15,_16))
edgepairs_((12,_13),_(19,_21))
edgepairs_((12,_13),_(21,_22))
edgepairs_((12,_13),_(22,_23))
edgepairs_((12,_13),_(23,_24))
edgepairs_((12,_13),_(24,_25))
edgepairs_((12,_13),_(25,_26))
edgepairs_((12,_13),_(26,_27))
edgepairs_((12,_13),_(27,_28))
edgepairs_((12,_13),_(28,_29))
edgepairs_((12,_13),_(29,_30))
edgepairs_((12,_13),_(3,_5))
edgepairs_((12,_13),_(30,_31))
edgepairs_((12,_13),_(31,_32))
edgepairs_((12,_13),_(32,_33))
edgepairs_((12,_13),_(33,_34))
edgepairs_((12,_13),_(34,_35))
edgepairs_((12,_13),_(35,_36))
edgepairs_((12,_13),_(36,_37))
edgepairs_((12,_13),_(37,_38))
edgepairs_((12,_13),_(37,_39))
edgepairs_((12,_13),_(39,_40))
edgepairs_((12,_13),_(42,_44))
edgepairs_((12,_13),_(44,_45))
edgepairs_((12,_13),_(45,_46))
edgepairs_((12,_13),_(46,_47))
edgepairs_((12,_13),_(47,_48))
edgepairs_((12,_13),_(48,_49))
edgepairs_((12,_13),_(49,_50))
edgepairs_((12,_13),_(5,_6))
edgepairs_((12,_13),_(50,_51))
edgepairs_((12,_13),_(51,_52))
edgepairs_((12,_13),_(52,_53))
edgepairs_((12,_13),_(53,_54))
edgepairs_((12,_13),_(6,_7))
edgepairs_((12,_13),_(7,_8))
edgepairs_((12,_13),_(8,_9))
edgepairs_((12,_13),_(9,_10))
edgepairs_((12,_13),__1)
edgepairs_((13,_14),_(0,_1))
edgepairs_((13,_14),_(0,_17))
edgepairs_((13,_14),_(10,_11))
edgepairs_((13,_14),_(11,_12))
edgepairs_((13,_14),_(12,_13))
edgepairs_((13,_14),_(13,_14))
edgepairs_((13,_14),_(14,_15))
edgepairs_((13,_14),_(15,_16))
edgepairs_((13,_14),_(19,_21))
edgepairs_((13,_14),_(21,_22))
edgepairs_((13,_14),_(22,_23))
edgepairs_((13,_14),_(23,_24))
edgepairs_((13,_14),_(24,_25))
edgepairs_((13,_14),_(25,_26))
edgepairs_((13,_14),_(26,_27))
edgepairs_((13,_14),_(27,_28))
edgepairs_((13,_14),_(28,_29))
edgepairs_((13,_14),_(29,_30))
edgepairs_((13,_14),_(3,_5))
edgepairs_((13,_14),_(30,_31))
edgepairs_((13,_14),_(31,_32))
edgepairs_((13,_14),_(32,_33))
edgepairs_((13,_14),_(33,_34))
edgepairs_((13,_14),_(34,_35))
edgepairs_((13,_14),_(35,_36))
edgepairs_((13,_14),_(36,_37))
edgepairs_((13,_14),_(37,_38))
edgepairs_((13,_14),_(37,_39))
edgepairs_((13,_14),_(39,_40))
edgepairs_((13,_14),_(42,_44))
edgepairs_((13,_14),_(44,_45))
edgepairs_((13,_14),_(45,_46))
edgepairs_((13,_14),_(46,_47))
edgepairs_((13,_14),_(47,_48))
edgepairs_((13,_14),_(48,_49))
edgepairs_((13,_14),_(49,_50))
edgepairs_((13,_14),_(5,_6))
edgepairs_((13,_14),_(50,_51))
edgepairs_((13,_14),_(51,_52))
edgepairs_((13,_14),_(52,_53))
edgepairs_((13,_14),_(53,_54))
edgepairs_((13,_14),_(6,_7))
edgepairs_((13,_14),_(7,_8))
edgepairs_((13,_14),_(8,_9))
edgepairs_((13,_14),_(9,_10))
edgepairs_((13,_14),__1)
edgepairs_((14,_15),_(0,_1))
edgepairs_((14,_15),_(0,_17))
edgepairs_((14,_15),_(10,_11))
edgepairs_((14,_15),_(11,_12))
edgepairs_((14,_15),_(12,_13))
edgepairs_((14,_15),_(13,_14))
edgepairs_((14,_15),_(14,_15))
edgepairs_((14,_15),_(15,_16))
edgepairs_((14,_15),_(19,_21))
edgepairs_((14,_15),_(21,_22))
edgepairs_((14,_15),_(22,_23))
edgepairs_((14,_15),_(23,_24))
edgepairs_((14,_15),_(24,_25))
edgepairs_((14,_15),_(25,_26))
edgepairs_((14,_15),_(26,_27))
edgepairs_((14,_15),_(27,_28))
edgepairs_((14,_15),_(28,_29))
edgepairs_((14,_15),_(29,_30))
edgepairs_((14,_15),_(3,_5))
edgepairs_((14,_15),_(30,_31))
edgepairs_((14,_15),_(31,_32))
edgepairs_((14,_15),_(32,_33))
edgepairs_((14,_15),_(33,_34))
edgepairs_((14,_15),_(34,_35))
edgepairs_((14,_15),_(35,_36))
edgepairs_((14,_15),_(36,_37))
edgepairs_((14,_15),_(37,_38))
edgepairs_((14,_15),_(37,_39))
edgepairs_((14,_15),_(39,_40))
edgepairs_((14,_15),_(42,_44))
edgepairs_((14,_15),_(44,_45))
edgepairs_((14,_15),_(45,_46))
edgepairs_((14,_15),_(46,_47))
edgepairs_((14,_15),_(47,_48))
edgepairs_((14,_15),_(48,_49))
edgepairs_((14,_15),_(49,_50))
edgepairs_((14,_15),_(5,_6))
edgepairs_((14,_15),_(50,_51))
edgepairs_((14,_15),_(51,_52))
edgepairs_((14,_15),_(52,_53))
edgepairs_((14,_15),_(53,_54))
edgepairs_((14,_15),_(6,_7))
edgepairs_((14,_15),_(7,_8))
edgepairs_((14,_15),_(8,_9))
edgepairs_((14,_15),_(9,_10))
edgepairs_((14,_15),__1)
edgepairs_((15,_16),_(0,_1))
edgepairs_((15,_16),_(0,_17))
edgepairs_((15,_16),_(10,_11))
edgepairs_((15,_16),_(11,_12))
edgepairs_((15,_16),_(12,_13))
edgepairs_((15,_16),_(13,_14))
edgepairs_((15,_16),_(14,_15))
edgepairs_((15,_16),_(15,_16))
edgepairs_((15,_16),_(19,_21))
edgepairs_((15,_16),_(21,_22))
edgepairs_((15,_16),_(22,_23))
edgepairs_((15,_16),_(23,_24))
edgepairs_((15,_16),_(24,_25))
edgepairs_((15,_16),_(25,_26))
edgepairs_((15,_16),_(26,_27))
edgepairs_((15,_16),_(27,_28))
edgepairs_((15,_16),_(28,_29))
edgepairs_((15,_16),_(29,_30))
edgepairs_((15,_16),_(3,_5))
edgepairs_((15,_16),_(30,_31))
edgepairs_((15,_16),_(31,_32))
edgepairs_((15,_16),_(32,_33))
edgepairs_((15,_16),_(33,_34))
edgepairs_((15,_16),_(34,_35))
edgepairs_((15,_16),_(35,_36))
edgepairs_((15,_16),_(36,_37))
edgepairs_((15,_16),_(37,_38))
edgepairs_((15,_16),_(37,_39))
edgepairs_((15,_16),_(39,_40))
edgepairs_((15,_16),_(42,_44))
edgepairs_((15,_16),_(44,_45))
edgepairs_((15,_16),_(45,_46))
edgepairs_((15,_16),_(46,_47))
edgepairs_((15,_16),_(47,_48))
edgepairs_((15,_16),_(48,_49))
edgepairs_((15,_16),_(49,_50))
edgepairs_((15,_16),_(5,_6))
edgepairs_((15,_16),_(50,_51))
edgepairs_((15,_16),_(51,_52))
edgepairs_((15,_16),_(52,_53))
edgepairs_((15,_16),_(53,_54))
edgepairs_((15,_16),_(6,_7))
edgepairs_((15,_16),_(7,_8))
edgepairs_((15,_16),_(8,_9))
edgepairs_((15,_16),_(9,_10))
edgepairs_((15,_16),__1)
edgepairs_((16,_17),_(0,_1))
edgepairs_((16,_17),_(0,_17))
edgepairs_((16,_17),_(10,_11))
edgepairs_((16,_17),_(11,_12))
edgepairs_((16,_17),_(12,_13))
edgepairs_((16,_17),_(13,_14))
edgepairs_((16,_17),_(14,_15))
edgepairs_((16,_17),_(15,_16))
edgepairs_((16,_17),_(19,_21))
edgepairs_((16,_17),_(21,_22))
edgepairs_((16,_17),_(22,_23))
edgepairs_((16,_17),_(23,_24))
edgepairs_((16,_17),_(24,_25))
edgepairs_((16,_17),_(25,_26))
edgepairs_((16,_17),_(26,_27))
edgepairs_((16,_17),_(27,_28))
edgepairs_((16,_17),_(28,_29))
edgepairs_((16,_17),_(29,_30))
edgepairs_((16,_17),_(3,_5))
edgepairs_((16,_17),_(30,_31))
edgepairs_((16,_17),_(31,_32))
edgepairs_((16,_17),_(32,_33))
edgepairs_((16,_17),_(33,_34))
edgepairs_((16,_17),_(34,_35))
edgepairs_((16,_17),_(35,_36))
edgepairs_((16,_17),_(36,_37))
edgepairs_((16,_17),_(37,_38))
edgepairs_((16,_17),_(37,_39))
edgepairs_((16,_17),_(39,_40))
edgepairs_((16,_17),_(42,_44))
edgepairs_((16,_17),_(44,_45))
edgepairs_((16,_17),_(45,_46))
edgepairs_((16,_17),_(46,_47))
edgepairs_((16,_17),_(47,_48))
edgepairs_((16,_17),_(48,_49))
edgepairs_((16,_17),_(49,_50))
edgepairs_((16,_17),_(5,_6))
edgepairs_((16,_17),_(50,_51))
edgepairs_((16,_17),_(51,_52))
edgepairs_((16,_17),_(52,_53))
edgepairs_((16,_17),_(53,_54))
edgepairs_((16,_17),_(6,_7))
edgepairs_((16,_17),_(7,_8))
edgepairs_((16,_17),_(8,_9))
edgepairs_((16,_17),_(9,_10))
edgepairs_((16,_17),__1)
edgepairs_((17,_18),_(0,_1))
edgepairs_((17,_18),_(0,_17))
edgepairs_((17,_18),_(10,_11))
edgepairs_((17,_18),_(11,_12))
edgepairs_((17,_18),_(12,_13))
edgepairs_((17,_18),_(13,_14))
edgepairs_((17,_18),_(14,_15))
edgepairs_((17,_18),_(15,_16))
edgepairs_((17,_18),_(19,_21))
edgepairs_((17,_18),_(21,_22))
edgepairs_((17,_18),_(22,_23))
edgepairs_((17,_18),_(23,_24))
edgepairs_((17,_18),_(24,_25))
edgepairs_((17,_18),_(25,_26))
edgepairs_((17,_18),_(26,_27))
edgepairs_((17,_18),_(27,_28))
edgepairs_((17,_18),_(28,_29))
edgepairs_((17,_18),_(29,_30))
edgepairs_((17,_18),_(3,_5))
edgepairs_((17,_18),_(30,_31))
edgepairs_((17,_18),_(31,_32))
edgepairs_((17,_18),_(32,_33))
edgepairs_((17,_18),_(33,_34))
edgepairs_((17,_18),_(34,_35))
edgepairs_((17,_18),_(35,_36))
edgepairs_((17,_18),_(36,_37))
edgepairs_((17,_18),_(37,_38))
edgepairs_((17,_18),_(37,_39))
edgepairs_((17,_18),_(39,_40))
edgepairs_((17,_18),_(42,_44))
edgepairs_((17,_18),_(44,_45))
edgepairs_((17,_18),_(45,_46))
edgepairs_((17,_18),_(46,_47))
edgepairs_((17,_18),_(47,_48))
edgepairs_((17,_18),_(48,_49))
edgepairs_((17,_18),_(49,_50))
edgepairs_((17,_18),_(5,_6))
edgepairs_((17,_18),_(50,_51))
edgepairs_((17,_18),_(51,_52))
edgepairs_((17,_18),_(52,_53))
edgepairs_((17,_18),_(53,_54))
edgepairs_((17,_18),_(6,_7))
edgepairs_((17,_18),_(7,_8))
edgepairs_((17,_18),_(8,_9))
edgepairs_((17,_18),_(9,_10))
edgepairs_((17,_18),__1)
edgepairs_((18,_19),_(0,_1))
edgepairs_((18,_19),_(0,_17))
edgepairs_((18,_19),_(10,_11))
edgepairs_((18,_19),_(11,_12))
edgepairs_((18,_19),_(12,_13))
edgepairs_((18,_19),_(13,_14))
edgepairs_((18,_19),_(14,_15))
edgepairs_((18,_19),_(15,_16))
edgepairs_((18,_19),_(19,_21))
edgepairs_((18,_19),_(21,_22))
edgepairs_((18,_19),_(22,_23))
edgepairs_((18,_19),_(23,_24))
edgepairs_((18,_19),_(24,_25))
edgepairs_((18,_19),_(25,_26))
edgepairs_((18,_19),_(26,_27))
edgepairs_((18,_19),_(27,_28))
edgepairs_((18,_19),_(28,_29))
edgepairs_((18,_19),_(29,_30))
edgepairs_((18,_19),_(3,_5))
edgepairs_((18,_19),_(30,_31))
edgepairs_((18,_19),_(31,_32))
edgepairs_((18,_19),_(32,_33))
edgepairs_((18,_19),_(33,_34))
edgepairs_((18,_19),_(34,_35))
edgepairs_((18,_19),_(35,_36))
edgepairs_((18,_19),_(36,_37))
edgepairs_((18,_19),_(37,_38))
edgepairs_((18,_19),_(37,_39))
edgepairs_((18,_19),_(39,_40))
edgepairs_((18,_19),_(42,_44))
edgepairs_((18,_19),_(44,_45))
edgepairs_((18,_19),_(45,_46))
edgepairs_((18,_19),_(46,_47))
edgepairs_((18,_19),_(47,_48))
edgepairs_((18,_19),_(48,_49))
edgepairs_((18,_19),_(49,_50))
edgepairs_((18,_19),_(5,_6))
edgepairs_((18,_19),_(50,_51))
edgepairs_((18,_19),_(51,_52))
edgepairs_((18,_19),_(52,_53))
edgepairs_((18,_19),_(53,_54))
edgepairs_((18,_19),_(6,_7))
edgepairs_((18,_19),_(7,_8))
edgepairs_((18,_19),_(8,_9))
edgepairs_((18,_19),_(9,_10))
edgepairs_((18,_19),__1)
edgepairs_((19,_20),_(0,_1))
edgepairs_((19,_20),_(0,_17))
edgepairs_((19,_20),_(10,_11))
edgepairs_((19,_20),_(11,_12))
edgepairs_((19,_20),_(12,_13))
edgepairs_((19,_20),_(13,_14))
edgepairs_((19,_20),_(14,_15))
edgepairs_((19,_20),_(15,_16))
edgepairs_((19,_20),_(19,_21))
edgepairs_((19,_20),_(21,_22))
edgepairs_((19,_20),_(22,_23))
edgepairs_((19,_20),_(23,_24))
edgepairs_((19,_20),_(24,_25))
edgepairs_((19,_20),_(25,_26))
edgepairs_((19,_20),_(26,_27))
edgepairs_((19,_20),_(27,_28))
edgepairs_((19,_20),_(28,_29))
edgepairs_((19,_20),_(29,_30))
edgepairs_((19,_20),_(3,_5))
edgepairs_((19,_20),_(30,_31))
edgepairs_((19,_20),_(31,_32))
edgepairs_((19,_20),_(32,_33))
edgepairs_((19,_20),_(33,_34))
edgepairs_((19,_20),_(34,_35))
edgepairs_((19,_20),_(35,_36))
edgepairs_((19,_20),_(36,_37))
edgepairs_((19,_20),_(37,_38))
edgepairs_((19,_20),_(37,_39))
edgepairs_((19,_20),_(39,_40))
edgepairs_((19,_20),_(42,_44))
edgepairs_((19,_20),_(44,_45))
edgepairs_((19,_20),_(45,_46))
edgepairs_((19,_20),_(46,_47))
edgepairs_((19,_20),_(47,_48))
edgepairs_((19,_20),_(48,_49))
edgepairs_((19,_20),_(49,_50))
edgepairs_((19,_20),_(5,_6))
edgepairs_((19,_20),_(50,_51))
edgepairs_((19,_20),_(51,_52))
edgepairs_((19,_20),_(52,_53))
edgepairs_((19,_20),_(53,_54))
edgepairs_((19,_20),_(6,_7))
edgepairs_((19,_20),_(7,_8))
edgepairs_((19,_20),_(8,_9))
edgepairs_((19,_20),_(9,_10))
edgepairs_((19,_20),__1)
edgepairs_((2,_3),_(0,_41))
edgepairs_((2,_3),_(1,_2))
edgepairs_((2,_3),_(17,_18))
edgepairs_((2,_3),_(18,_19))
edgepairs_((2,_3),_(19,_20))
edgepairs_((2,_3),_(2,_3))
edgepairs_((2,_3),_(3,_4))
edgepairs_((2,_3),_(41,_42))
edgepairs_((2,_3),_(42,_43))
edgepairs_((2,_3),__1)
edgepairs_((20,_21),_(0,_1))
edgepairs_((20,_21),_(0,_17))
edgepairs_((20,_21),_(10,_11))
edgepairs_((20,_21),_(11,_12))
edgepairs_((20,_21),_(12,_13))
edgepairs_((20,_21),_(13,_14))
edgepairs_((20,_21),_(14,_15))
edgepairs_((20,_21),_(15,_16))
edgepairs_((20,_21),_(19,_21))
edgepairs_((20,_21),_(21,_22))
edgepairs_((20,_21),_(22,_23))
edgepairs_((20,_21),_(23,_24))
edgepairs_((20,_21),_(24,_25))
edgepairs_((20,_21),_(25,_26))
edgepairs_((20,_21),_(26,_27))
edgepairs_((20,_21),_(27,_28))
edgepairs_((20,_21),_(28,_29))
edgepairs_((20,_21),_(29,_30))
edgepairs_((20,_21),_(3,_5))
edgepairs_((20,_21),_(30,_31))
edgepairs_((20,_21),_(31,_32))
edgepairs_((20,_21),_(32,_33))
edgepairs_((20,_21),_(33,_34))
edgepairs_((20,_21),_(34,_35))
edgepairs_((20,_21),_(35,_36))
edgepairs_((20,_21),_(36,_37))
edgepairs_((20,_21),_(37,_38))
edgepairs_((20,_21),_(37,_39))
edgepairs_((20,_21),_(39,_40))
edgepairs_((20,_21),_(42,_44))
edgepairs_((20,_21),_(44,_45))
edgepairs_((20,_21),_(45,_46))
edgepairs_((20,_21),_(46,_47))
edgepairs_((20,_21),_(47,_48))
edgepairs_((20,_21),_(48,_49))
edgepairs_((20,_21),_(49,_50))
edgepairs_((20,_21),_(5,_6))
edgepairs_((20,_21),_(50,_51))
edgepairs_((20,_21),_(51,_52))
edgepairs_((20,_21),_(52,_53))
edgepairs_((20,_21),_(53,_54))
edgepairs_((20,_21),_(6,_7))
edgepairs_((20,_21),_(7,_8))
edgepairs_((20,_21),_(8,_9))
edgepairs_((20,_21),_(9,_10))
edgepairs_((20,_21),__1)
edgepairs_((21,_22),_(0,_1))
edgepairs_((21,_22),_(0,_17))
edgepairs_((21,_22),_(10,_11))
edgepairs_((21,_22),_(11,_12))
edgepairs_((21,_22),_(12,_13))
edgepairs_((21,_22),_(13,_14))
edgepairs_((21,_22),_(14,_15))
edgepairs_((21,_22),_(15,_16))
edgepairs_((21,_22),_(19,_21))
edgepairs_((21,_22),_(21,_22))
edgepairs_((21,_22),_(22,_23))
edgepairs_((21,_22),_(23,_24))
edgepairs_((21,_22),_(24,_25))
edgepairs_((21,_22),_(25,_26))
edgepairs_((21,_22),_(26,_27))
edgepairs_((21,_22),_(27,_28))
edgepairs_((21,_22),_(28,_29))
edgepairs_((21,_22),_(29,_30))
edgepairs_((21,_22),_(3,_5))
edgepairs_((21,_22),_(30,_31))
edgepairs_((21,_22),_(31,_32))
edgepairs_((21,_22),_(32,_33))
edgepairs_((21,_22),_(33,_34))
edgepairs_((21,_22),_(34,_35))
edgepairs_((21,_22),_(35,_36))
edgepairs_((21,_22),_(36,_37))
edgepairs_((21,_22),_(37,_38))
edgepairs_((21,_22),_(37,_39))
edgepairs_((21,_22),_(39,_40))
edgepairs_((21,_22),_(42,_44))
edgepairs_((21,_22),_(44,_45))
edgepairs_((21,_22),_(45,_46))
edgepairs_((21,_22),_(46,_47))
edgepairs_((21,_22),_(47,_48))
edgepairs_((21,_22),_(48,_49))
edgepairs_((21,_22),_(49,_50))
edgepairs_((21,_22),_(5,_6))
edgepairs_((21,_22),_(50,_51))
edgepairs_((21,_22),_(51,_52))
edgepairs_((21,_22),_(52,_53))
edgepairs_((21,_22),_(53,_54))
edgepairs_((21,_22),_(6,_7))
edgepairs_((21,_22),_(7,_8))
edgepairs_((21,_22),_(8,_9))
edgepairs_((21,_22),_(9,_10))
edgepairs_((21,_22),__1)
edgepairs_((22,_23),_(0,_1))
edgepairs_((22,_23),_(0,_17))
edgepairs_((22,_23),_(10,_11))
edgepairs_((22,_23),_(11,_12))
edgepairs_((22,_23),_(12,_13))
edgepairs_((22,_23),_(13,_14))
edgepairs_((22,_23),_(14,_15))
edgepairs_((22,_23),_(15,_16))
edgepairs_((22,_23),_(19,_21))
edgepairs_((22,_23),_(21,_22))
edgepairs_((22,_23),_(22,_23))
edgepairs_((22,_23),_(23,_24))
edgepairs_((22,_23),_(24,_25))
edgepairs_((22,_23),_(25,_26))
edgepairs_((22,_23),_(26,_27))
edgepairs_((22,_23),_(27,_28))
edgepairs_((22,_23),_(28,_29))
edgepairs_((22,_23),_(29,_30))
edgepairs_((22,_23),_(3,_5))
edgepairs_((22,_23),_(30,_31))
edgepairs_((22,_23),_(31,_32))
edgepairs_((22,_23),_(32,_33))
edgepairs_((22,_23),_(33,_34))
edgepairs_((22,_23),_(34,_35))
edgepairs_((22,_23),_(35,_36))
edgepairs_((22,_23),_(36,_37))
edgepairs_((22,_23),_(37,_38))
edgepairs_((22,_23),_(37,_39))
edgepairs_((22,_23),_(39,_40))
edgepairs_((22,_23),_(42,_44))
edgepairs_((22,_23),_(44,_45))
edgepairs_((22,_23),_(45,_46))
edgepairs_((22,_23),_(46,_47))
edgepairs_((22,_23),_(47,_48))
edgepairs_((22,_23),_(48,_49))
edgepairs_((22,_23),_(49,_50))
edgepairs_((22,_23),_(5,_6))
edgepairs_((22,_23),_(50,_51))
edgepairs_((22,_23),_(51,_52))
edgepairs_((22,_23),_(52,_53))
edgepairs_((22,_23),_(53,_54))
edgepairs_((22,_23),_(6,_7))
edgepairs_((22,_23),_(7,_8))
edgepairs_((22,_23),_(8,_9))
edgepairs_((22,_23),_(9,_10))
edgepairs_((22,_23),__1)
edgepairs_((23,_24),_(0,_1))
edgepairs_((23,_24),_(0,_17))
edgepairs_((23,_24),_(10,_11))
edgepairs_((23,_24),_(11,_12))
edgepairs_((23,_24),_(12,_13))
edgepairs_((23,_24),_(13,_14))
edgepairs_((23,_24),_(14,_15))
edgepairs_((23,_24),_(15,_16))
edgepairs_((23,_24),_(19,_21))
edgepairs_((23,_24),_(21,_22))
edgepairs_((23,_24),_(22,_23))
edgepairs_((23,_24),_(23,_24))
edgepairs_((23,_24),_(24,_25))
edgepairs_((23,_24),_(25,_26))
edgepairs_((23,_24),_(26,_27))
edgepairs_((23,_24),_(27,_28))
edgepairs_((23,_24),_(28,_29))
edgepairs_((23,_24),_(29,_30))
edgepairs_((23,_24),_(3,_5))
edgepairs_((23,_24),_(30,_31))
edgepairs_((23,_24),_(31,_32))
edgepairs_((23,_24),_(32,_33))
edgepairs_((23,_24),_(33,_34))
edgepairs_((23,_24),_(34,_35))
edgepairs_((23,_24),_(35,_36))
edgepairs_((23,_24),_(36,_37))
edgepairs_((23,_24),_(37,_38))
edgepairs_((23,_24),_(37,_39))
edgepairs_((23,_24),_(39,_40))
edgepairs_((23,_24),_(42,_44))
edgepairs_((23,_24),_(44,_45))
edgepairs_((23,_24),_(45,_46))
edgepairs_((23,_24),_(46,_47))
edgepairs_((23,_24),_(47,_48))
edgepairs_((23,_24),_(48,_49))
edgepairs_((23,_24),_(49,_50))
edgepairs_((23,_24),_(5,_6))
edgepairs_((23,_24),_(50,_51))
edgepairs_((23,_24),_(51,_52))
edgepairs_((23,_24),_(52,_53))
edgepairs_((23,_24),_(53,_54))
edgepairs_((23,_24),_(6,_7))
edgepairs_((23,_24),_(7,_8))
edgepairs_((23,_24),_(8,_9))
edgepairs_((23,_24),_(9,_10))
edgepairs_((23,_24),__1)
edgepairs_((23,_25),_(0,_1))
edgepairs_((23,_25),_(0,_17))
edgepairs_((23,_25),_(10,_11))
edgepairs_((23,_25),_(11,_12))
edgepairs_((23,_25),_(12,_13))
edgepairs_((23,_25),_(13,_14))
edgepairs_((23,_25),_(14,_15))
edgepairs_((23,_25),_(15,_16))
edgepairs_((23,_25),_(19,_21))
edgepairs_((23,_25),_(21,_22))
edgepairs_((23,_25),_(22,_23))
edgepairs_((23,_25),_(23,_24))
edgepairs_((23,_25),_(24,_25))
edgepairs_((23,_25),_(25,_26))
edgepairs_((23,_25),_(26,_27))
edgepairs_((23,_25),_(27,_28))
edgepairs_((23,_25),_(28,_29))
edgepairs_((23,_25),_(29,_30))
edgepairs_((23,_25),_(3,_5))
edgepairs_((23,_25),_(30,_31))
edgepairs_((23,_25),_(31,_32))
edgepairs_((23,_25),_(32,_33))
edgepairs_((23,_25),_(33,_34))
edgepairs_((23,_25),_(34,_35))
edgepairs_((23,_25),_(35,_36))
edgepairs_((23,_25),_(36,_37))
edgepairs_((23,_25),_(37,_38))
edgepairs_((23,_25),_(37,_39))
edgepairs_((23,_25),_(39,_40))
edgepairs_((23,_25),_(42,_44))
edgepairs_((23,_25),_(44,_45))
edgepairs_((23,_25),_(45,_46))
edgepairs_((23,_25),_(46,_47))
edgepairs_((23,_25),_(47,_48))
edgepairs_((23,_25),_(48,_49))
edgepairs_((23,_25),_(49,_50))
edgepairs_((23,_25),_(5,_6))
edgepairs_((23,_25),_(50,_51))
edgepairs_((23,_25),_(51,_52))
edgepairs_((23,_25),_(52,_53))
edgepairs_((23,_25),_(53,_54))
edgepairs_((23,_25),_(6,_7))
edgepairs_((23,_25),_(7,_8))
edgepairs_((23,_25),_(8,_9))
edgepairs_((23,_25),_(9,_10))
edgepairs_((23,_25),__1)
edgepairs_((26,_27),_(0,_41))
edgepairs_((26,_27),_(1,_2))
edgepairs_((26,_27),_(17,_18))
edgepairs_((26,_27),_(18,_19))
edgepairs_((26,_27),_(19,_20))
edgepairs_((26,_27),_(2,_3))
edgepairs_((26,_27),_(3,_4))
edgepairs_((26,_27),_(41,_42))
edgepairs_((26,_27),_(42,_43))
edgepairs_((26,_27),__1)
edgepairs_((27,_28),_(0,_41))
edgepairs_((27,_28),_(1,_2))
edgepairs_((27,_28),_(17,_18))
edgepairs_((27,_28),_(18,_19))
edgepairs_((27,_28),_(19,_20))
edgepairs_((27,_28),_(2,_3))
edgepairs_((27,_28),_(3,_4))
edgepairs_((27,_28),_(41,_42))
edgepairs_((27,_28),_(42,_43))
edgepairs_((27,_28),__1)
edgepairs_((28,_29),_(0,_41))
edgepairs_((28,_29),_(1,_2))
edgepairs_((28,_29),_(17,_18))
edgepairs_((28,_29),_(18,_19))
edgepairs_((28,_29),_(19,_20))
edgepairs_((28,_29),_(2,_3))
edgepairs_((28,_29),_(3,_4))
edgepairs_((28,_29),_(41,_42))
edgepairs_((28,_29),_(42,_43))
edgepairs_((28,_29),__1)
edgepairs_((28,_30),_(0,_1))
edgepairs_((28,_30),_(0,_17))
edgepairs_((28,_30),_(10,_11))
edgepairs_((28,_30),_(11,_12))
edgepairs_((28,_30),_(12,_13))
edgepairs_((28,_30),_(13,_14))
edgepairs_((28,_30),_(14,_15))
edgepairs_((28,_30),_(15,_16))
edgepairs_((28,_30),_(19,_21))
edgepairs_((28,_30),_(21,_22))
edgepairs_((28,_30),_(22,_23))
edgepairs_((28,_30),_(23,_24))
edgepairs_((28,_30),_(24,_25))
edgepairs_((28,_30),_(25,_26))
edgepairs_((28,_30),_(26,_27))
edgepairs_((28,_30),_(27,_28))
edgepairs_((28,_30),_(28,_29))
edgepairs_((28,_30),_(29,_30))
edgepairs_((28,_30),_(3,_5))
edgepairs_((28,_30),_(30,_31))
edgepairs_((28,_30),_(31,_32))
edgepairs_((28,_30),_(32,_33))
edgepairs_((28,_30),_(33,_34))
edgepairs_((28,_30),_(34,_35))
edgepairs_((28,_30),_(35,_36))
edgepairs_((28,_30),_(36,_37))
edgepairs_((28,_30),_(37,_38))
edgepairs_((28,_30),_(37,_39))
edgepairs_((28,_30),_(39,_40))
edgepairs_((28,_30),_(42,_44))
edgepairs_((28,_30),_(44,_45))
edgepairs_((28,_30),_(45,_46))
edgepairs_((28,_30),_(46,_47))
edgepairs_((28,_30),_(47,_48))
edgepairs_((28,_30),_(48,_49))
edgepairs_((28,_30),_(49,_50))
edgepairs_((28,_30),_(5,_6))
edgepairs_((28,_30),_(50,_51))
edgepairs_((28,_30),_(51,_52))
edgepairs_((28,_30),_(52,_53))
edgepairs_((28,_30),_(53,_54))
edgepairs_((28,_30),_(6,_7))
edgepairs_((28,_30),_(7,_8))
edgepairs_((28,_30),_(8,_9))
edgepairs_((28,_30),_(9,_10))
edgepairs_((28,_30),__1)
edgepairs_((3,_4),_(0,_41))
edgepairs_((3,_4),_(1,_2))
edgepairs_((3,_4),_(17,_18))
edgepairs_((3,_4),_(18,_19))
edgepairs_((3,_4),_(19,_20))
edgepairs_((3,_4),_(2,_3))
edgepairs_((3,_4),_(3,_4))
edgepairs_((3,_4),_(41,_42))
edgepairs_((3,_4),_(42,_43))
edgepairs_((3,_4),__1)
edgepairs_((3,_5),_(0,_1))
edgepairs_((3,_5),_(0,_17))
edgepairs_((3,_5),_(10,_11))
edgepairs_((3,_5),_(11,_12))
edgepairs_((3,_5),_(12,_13))
edgepairs_((3,_5),_(13,_14))
edgepairs_((3,_5),_(14,_15))
edgepairs_((3,_5),_(15,_16))
edgepairs_((3,_5),_(19,_21))
edgepairs_((3,_5),_(21,_22))
edgepairs_((3,_5),_(22,_23))
edgepairs_((3,_5),_(23,_24))
edgepairs_((3,_5),_(24,_25))
edgepairs_((3,_5),_(25,_26))
edgepairs_((3,_5),_(26,_27))
edgepairs_((3,_5),_(27,_28))
edgepairs_((3,_5),_(28,_29))
edgepairs_((3,_5),_(29,_30))
edgepairs_((3,_5),_(3,_5))
edgepairs_((3,_5),_(30,_31))
edgepairs_((3,_5),_(31,_32))
edgepairs_((3,_5),_(32,_33))
edgepairs_((3,_5),_(33,_34))
edgepairs_((3,_5),_(34,_35))
edgepairs_((3,_5),_(35,_36))
edgepairs_((3,_5),_(36,_37))
edgepairs_((3,_5),_(37,_38))
edgepairs_((3,_5),_(37,_39))
edgepairs_((3,_5),_(39,_40))
edgepairs_((3,_5),_(42,_44))
edgepairs_((3,_5),_(44,_45))
edgepairs_((3,_5),_(45,_46))
edgepairs_((3,_5),_(46,_47))
edgepairs_((3,_5),_(47,_48))
edgepairs_((3,_5),_(48,_49))
edgepairs_((3,_5),_(49,_50))
edgepairs_((3,_5),_(5,_6))
edgepairs_((3,_5),_(50,_51))
edgepairs_((3,_5),_(51,_52))
edgepairs_((3,_5),_(52,_53))
edgepairs_((3,_5),_(53,_54))
edgepairs_((3,_5),_(6,_7))
edgepairs_((3,_5),_(7,_8))
edgepairs_((3,_5),_(8,_9))
edgepairs_((3,_5),_(9,_10))
edgepairs_((3,_5),__1)
edgepairs_((30,_31),_(0,_1))
edgepairs_((30,_31),_(0,_17))
edgepairs_((30,_31),_(10,_11))
edgepairs_((30,_31),_(11,_12))
edgepairs_((30,_31),_(12,_13))
edgepairs_((30,_31),_(13,_14))
edgepairs_((30,_31),_(14,_15))
edgepairs_((30,_31),_(15,_16))
edgepairs_((30,_31),_(19,_21))
edgepairs_((30,_31),_(21,_22))
edgepairs_((30,_31),_(22,_23))
edgepairs_((30,_31),_(23,_24))
edgepairs_((30,_31),_(24,_25))
edgepairs_((30,_31),_(25,_26))
edgepairs_((30,_31),_(26,_27))
edgepairs_((30,_31),_(27,_28))
edgepairs_((30,_31),_(28,_29))
edgepairs_((30,_31),_(29,_30))
edgepairs_((30,_31),_(3,_5))
edgepairs_((30,_31),_(30,_31))
edgepairs_((30,_31),_(31,_32))
edgepairs_((30,_31),_(32,_33))
edgepairs_((30,_31),_(33,_34))
edgepairs_((30,_31),_(34,_35))
edgepairs_((30,_31),_(35,_36))
edgepairs_((30,_31),_(36,_37))
edgepairs_((30,_31),_(37,_38))
edgepairs_((30,_31),_(37,_39))
edgepairs_((30,_31),_(39,_40))
edgepairs_((30,_31),_(42,_44))
edgepairs_((30,_31),_(44,_45))
edgepairs_((30,_31),_(45,_46))
edgepairs_((30,_31),_(46,_47))
edgepairs_((30,_31),_(47,_48))
edgepairs_((30,_31),_(48,_49))
edgepairs_((30,_31),_(49,_50))
edgepairs_((30,_31),_(5,_6))
edgepairs_((30,_31),_(50,_51))
edgepairs_((30,_31),_(51,_52))
edgepairs_((30,_31),_(52,_53))
edgepairs_((30,_31),_(53,_54))
edgepairs_((30,_31),_(6,_7))
edgepairs_((30,_31),_(7,_8))
edgepairs_((30,_31),_(8,_9))
edgepairs_((30,_31),_(9,_10))
edgepairs_((30,_31),__1)
edgepairs_((31,_32),_(0,_1))
edgepairs_((31,_32),_(0,_17))
edgepairs_((31,_32),_(10,_11))
edgepairs_((31,_32),_(11,_12))
edgepairs_((31,_32),_(12,_13))
edgepairs_((31,_32),_(13,_14))
edgepairs_((31,_32),_(14,_15))
edgepairs_((31,_32),_(15,_16))
edgepairs_((31,_32),_(19,_21))
edgepairs_((31,_32),_(21,_22))
edgepairs_((31,_32),_(22,_23))
edgepairs_((31,_32),_(23,_24))
edgepairs_((31,_32),_(24,_25))
edgepairs_((31,_32),_(25,_26))
edgepairs_((31,_32),_(26,_27))
edgepairs_((31,_32),_(27,_28))
edgepairs_((31,_32),_(28,_29))
edgepairs_((31,_32),_(29,_30))
edgepairs_((31,_32),_(3,_5))
edgepairs_((31,_32),_(30,_31))
edgepairs_((31,_32),_(31,_32))
edgepairs_((31,_32),_(32,_33))
edgepairs_((31,_32),_(33,_34))
edgepairs_((31,_32),_(34,_35))
edgepairs_((31,_32),_(35,_36))
edgepairs_((31,_32),_(36,_37))
edgepairs_((31,_32),_(37,_38))
edgepairs_((31,_32),_(37,_39))
edgepairs_((31,_32),_(39,_40))
edgepairs_((31,_32),_(42,_44))
edgepairs_((31,_32),_(44,_45))
edgepairs_((31,_32),_(45,_46))
edgepairs_((31,_32),_(46,_47))
edgepairs_((31,_32),_(47,_48))
edgepairs_((31,_32),_(48,_49))
edgepairs_((31,_32),_(49,_50))
edgepairs_((31,_32),_(5,_6))
edgepairs_((31,_32),_(50,_51))
edgepairs_((31,_32),_(51,_52))
edgepairs_((31,_32),_(52,_53))
edgepairs_((31,_32),_(53,_54))
edgepairs_((31,_32),_(6,_7))
edgepairs_((31,_32),_(7,_8))
edgepairs_((31,_32),_(8,_9))
edgepairs_((31,_32),_(9,_10))
edgepairs_((31,_32),__1)
edgepairs_((32,_33),_(0,_1))
edgepairs_((32,_33),_(0,_17))
edgepairs_((32,_33),_(10,_11))
edgepairs_((32,_33),_(11,_12))
edgepairs_((32,_33),_(12,_13))
edgepairs_((32,_33),_(13,_14))
edgepairs_((32,_33),_(14,_15))
edgepairs_((32,_33),_(15,_16))
edgepairs_((32,_33),_(19,_21))
edgepairs_((32,_33),_(21,_22))
edgepairs_((32,_33),_(22,_23))
edgepairs_((32,_33),_(23,_24))
edgepairs_((32,_33),_(24,_25))
edgepairs_((32,_33),_(25,_26))
edgepairs_((32,_33),_(26,_27))
edgepairs_((32,_33),_(27,_28))
edgepairs_((32,_33),_(28,_29))
edgepairs_((32,_33),_(29,_30))
edgepairs_((32,_33),_(3,_5))
edgepairs_((32,_33),_(30,_31))
edgepairs_((32,_33),_(31,_32))
edgepairs_((32,_33),_(32,_33))
edgepairs_((32,_33),_(33,_34))
edgepairs_((32,_33),_(34,_35))
edgepairs_((32,_33),_(35,_36))
edgepairs_((32,_33),_(36,_37))
edgepairs_((32,_33),_(37,_38))
edgepairs_((32,_33),_(37,_39))
edgepairs_((32,_33),_(39,_40))
edgepairs_((32,_33),_(42,_44))
edgepairs_((32,_33),_(44,_45))
edgepairs_((32,_33),_(45,_46))
edgepairs_((32,_33),_(46,_47))
edgepairs_((32,_33),_(47,_48))
edgepairs_((32,_33),_(48,_49))
edgepairs_((32,_33),_(49,_50))
edgepairs_((32,_33),_(5,_6))
edgepairs_((32,_33),_(50,_51))
edgepairs_((32,_33),_(51,_52))
edgepairs_((32,_33),_(52,_53))
edgepairs_((32,_33),_(53,_54))
edgepairs_((32,_33),_(6,_7))
edgepairs_((32,_33),_(7,_8))
edgepairs_((32,_33),_(8,_9))
edgepairs_((32,_33),_(9,_10))
edgepairs_((32,_33),__1)
edgepairs_((33,_34),_(0,_1))
edgepairs_((33,_34),_(0,_17))
edgepairs_((33,_34),_(10,_11))
edgepairs_((33,_34),_(11,_12))
edgepairs_((33,_34),_(12,_13))
edgepairs_((33,_34),_(13,_14))
edgepairs_((33,_34),_(14,_15))
edgepairs_((33,_34),_(15,_16))
edgepairs_((33,_34),_(19,_21))
edgepairs_((33,_34),_(21,_22))
edgepairs_((33,_34),_(22,_23))
edgepairs_((33,_34),_(23,_24))
edgepairs_((33,_34),_(24,_25))
edgepairs_((33,_34),_(25,_26))
edgepairs_((33,_34),_(26,_27))
edgepairs_((33,_34),_(27,_28))
edgepairs_((33,_34),_(28,_29))
edgepairs_((33,_34),_(29,_30))
edgepairs_((33,_34),_(3,_5))
edgepairs_((33,_34),_(30,_31))
edgepairs_((33,_34),_(31,_32))
edgepairs_((33,_34),_(32,_33))
edgepairs_((33,_34),_(33,_34))
edgepairs_((33,_34),_(34,_35))
edgepairs_((33,_34),_(35,_36))
edgepairs_((33,_34),_(36,_37))
edgepairs_((33,_34),_(37,_38))
edgepairs_((33,_34),_(37,_39))
edgepairs_((33,_34),_(39,_40))
edgepairs_((33,_34),_(42,_44))
edgepairs_((33,_34),_(44,_45))
edgepairs_((33,_34),_(45,_46))
edgepairs_((33,_34),_(46,_47))
edgepairs_((33,_34),_(47,_48))
edgepairs_((33,_34),_(48,_49))
edgepairs_((33,_34),_(49,_50))
edgepairs_((33,_34),_(5,_6))
edgepairs_((33,_34),_(50,_51))
edgepairs_((33,_34),_(51,_52))
edgepairs_((33,_34),_(52,_53))
edgepairs_((33,_34),_(53,_54))
edgepairs_((33,_34),_(6,_7))
edgepairs_((33,_34),_(7,_8))
edgepairs_((33,_34),_(8,_9))
edgepairs_((33,_34),_(9,_10))
edgepairs_((33,_34),__1)
edgepairs_((34,_35),_(0,_1))
edgepairs_((34,_35),_(0,_17))
edgepairs_((34,_35),_(10,_11))
edgepairs_((34,_35),_(11,_12))
edgepairs_((34,_35),_(12,_13))
edgepairs_((34,_35),_(13,_14))
edgepairs_((34,_35),_(14,_15))
edgepairs_((34,_35),_(15,_16))
edgepairs_((34,_35),_(19,_21))
edgepairs_((34,_35),_(21,_22))
edgepairs_((34,_35),_(22,_23))
edgepairs_((34,_35),_(23,_24))
edgepairs_((34,_35),_(24,_25))
edgepairs_((34,_35),_(25,_26))
edgepairs_((34,_35),_(26,_27))
edgepairs_((34,_35),_(27,_28))
edgepairs_((34,_35),_(28,_29))
edgepairs_((34,_35),_(29,_30))
edgepairs_((34,_35),_(3,_5))
edgepairs_((34,_35),_(30,_31))
edgepairs_((34,_35),_(31,_32))
edgepairs_((34,_35),_(32,_33))
edgepairs_((34,_35),_(33,_34))
edgepairs_((34,_35),_(34,_35))
edgepairs_((34,_35),_(35,_36))
edgepairs_((34,_35),_(36,_37))
edgepairs_((34,_35),_(37,_38))
edgepairs_((34,_35),_(37,_39))
edgepairs_((34,_35),_(39,_40))
edgepairs_((34,_35),_(42,_44))
edgepairs_((34,_35),_(44,_45))
edgepairs_((34,_35),_(45,_46))
edgepairs_((34,_35),_(46,_47))
edgepairs_((34,_35),_(47,_48))
edgepairs_((34,_35),_(48,_49))
edgepairs_((34,_35),_(49,_50))
edgepairs_((34,_35),_(5,_6))
edgepairs_((34,_35),_(50,_51))
edgepairs_((34,_35),_(51,_52))
edgepairs_((34,_35),_(52,_53))
edgepairs_((34,_35),_(53,_54))
edgepairs_((34,_35),_(6,_7))
edgepairs_((34,_35),_(7,_8))
edgepairs_((34,_35),_(8,_9))
edgepairs_((34,_35),_(9,_10))
edgepairs_((34,_35),__1)
edgepairs_((35,_36),_(0,_1))
edgepairs_((35,_36),_(0,_17))
edgepairs_((35,_36),_(10,_11))
edgepairs_((35,_36),_(11,_12))
edgepairs_((35,_36),_(12,_13))
edgepairs_((35,_36),_(13,_14))
edgepairs_((35,_36),_(14,_15))
edgepairs_((35,_36),_(15,_16))
edgepairs_((35,_36),_(19,_21))
edgepairs_((35,_36),_(21,_22))
edgepairs_((35,_36),_(22,_23))
edgepairs_((35,_36),_(23,_24))
edgepairs_((35,_36),_(24,_25))
edgepairs_((35,_36),_(25,_26))
edgepairs_((35,_36),_(26,_27))
edgepairs_((35,_36),_(27,_28))
edgepairs_((35,_36),_(28,_29))
edgepairs_((35,_36),_(29,_30))
edgepairs_((35,_36),_(3,_5))
edgepairs_((35,_36),_(30,_31))
edgepairs_((35,_36),_(31,_32))
edgepairs_((35,_36),_(32,_33))
edgepairs_((35,_36),_(33,_34))
edgepairs_((35,_36),_(34,_35))
edgepairs_((35,_36),_(35,_36))
edgepairs_((35,_36),_(36,_37))
edgepairs_((35,_36),_(37,_38))
edgepairs_((35,_36),_(37,_39))
edgepairs_((35,_36),_(39,_40))
edgepairs_((35,_36),_(42,_44))
edgepairs_((35,_36),_(44,_45))
edgepairs_((35,_36),_(45,_46))
edgepairs_((35,_36),_(46,_47))
edgepairs_((35,_36),_(47,_48))
edgepairs_((35,_36),_(48,_49))
edgepairs_((35,_36),_(49,_50))
edgepairs_((35,_36),_(5,_6))
edgepairs_((35,_36),_(50,_51))
edgepairs_((35,_36),_(51,_52))
edgepairs_((35,_36),_(52,_53))
edgepairs_((35,_36),_(53,_54))
edgepairs_((35,_36),_(6,_7))
edgepairs_((35,_36),_(7,_8))
edgepairs_((35,_36),_(8,_9))
edgepairs_((35,_36),_(9,_10))
edgepairs_((35,_36),__1)
edgepairs_((36,_37),_(0,_1))
edgepairs_((36,_37),_(0,_17))
edgepairs_((36,_37),_(10,_11))
edgepairs_((36,_37),_(11,_12))
edgepairs_((36,_37),_(12,_13))
edgepairs_((36,_37),_(13,_14))
edgepairs_((36,_37),_(14,_15))
edgepairs_((36,_37),_(15,_16))
edgepairs_((36,_37),_(19,_21))
edgepairs_((36,_37),_(21,_22))
edgepairs_((36,_37),_(22,_23))
edgepairs_((36,_37),_(23,_24))
edgepairs_((36,_37),_(24,_25))
edgepairs_((36,_37),_(25,_26))
edgepairs_((36,_37),_(26,_27))
edgepairs_((36,_37),_(27,_28))
edgepairs_((36,_37),_(28,_29))
edgepairs_((36,_37),_(29,_30))
edgepairs_((36,_37),_(3,_5))
edgepairs_((36,_37),_(30,_31))
edgepairs_((36,_37),_(31,_32))
edgepairs_((36,_37),_(32,_33))
edgepairs_((36,_37),_(33,_34))
edgepairs_((36,_37),_(34,_35))
edgepairs_((36,_37),_(35,_36))
edgepairs_((36,_37),_(36,_37))
edgepairs_((36,_37),_(37,_38))
edgepairs_((36,_37),_(37,_39))
edgepairs_((36,_37),_(39,_40))
edgepairs_((36,_37),_(42,_44))
edgepairs_((36,_37),_(44,_45))
edgepairs_((36,_37),_(45,_46))
edgepairs_((36,_37),_(46,_47))
edgepairs_((36,_37),_(47,_48))
edgepairs_((36,_37),_(48,_49))
edgepairs_((36,_37),_(49,_50))
edgepairs_((36,_37),_(5,_6))
edgepairs_((36,_37),_(50,_51))
edgepairs_((36,_37),_(51,_52))
edgepairs_((36,_37),_(52,_53))
edgepairs_((36,_37),_(53,_54))
edgepairs_((36,_37),_(6,_7))
edgepairs_((36,_37),_(7,_8))
edgepairs_((36,_37),_(8,_9))
edgepairs_((36,_37),_(9,_10))
edgepairs_((36,_37),__1)
edgepairs_((37,_38),_(0,_1))
edgepairs_((37,_38),_(0,_17))
edgepairs_((37,_38),_(10,_11))
edgepairs_((37,_38),_(11,_12))
edgepairs_((37,_38),_(12,_13))
edgepairs_((37,_38),_(13,_14))
edgepairs_((37,_38),_(14,_15))
edgepairs_((37,_38),_(15,_16))
edgepairs_((37,_38),_(19,_21))
edgepairs_((37,_38),_(21,_22))
edgepairs_((37,_38),_(22,_23))
edgepairs_((37,_38),_(23,_24))
edgepairs_((37,_38),_(24,_25))
edgepairs_((37,_38),_(25,_26))
edgepairs_((37,_38),_(26,_27))
edgepairs_((37,_38),_(27,_28))
edgepairs_((37,_38),_(28,_29))
edgepairs_((37,_38),_(29,_30))
edgepairs_((37,_38),_(3,_5))
edgepairs_((37,_38),_(30,_31))
edgepairs_((37,_38),_(31,_32))
edgepairs_((37,_38),_(32,_33))
edgepairs_((37,_38),_(33,_34))
edgepairs_((37,_38),_(34,_35))
edgepairs_((37,_38),_(35,_36))
edgepairs_((37,_38),_(36,_37))
edgepairs_((37,_38),_(37,_38))
edgepairs_((37,_38),_(37,_39))
edgepairs_((37,_38),_(39,_40))
edgepairs_((37,_38),_(42,_44))
edgepairs_((37,_38),_(44,_45))
edgepairs_((37,_38),_(45,_46))
edgepairs_((37,_38),_(46,_47))
edgepairs_((37,_38),_(47,_48))
edgepairs_((37,_38),_(48,_49))
edgepairs_((37,_38),_(49,_50))
edgepairs_((37,_38),_(5,_6))
edgepairs_((37,_38),_(50,_51))
edgepairs_((37,_38),_(51,_52))
edgepairs_((37,_38),_(52,_53))
edgepairs_((37,_38),_(53,_54))
edgepairs_((37,_38),_(6,_7))
edgepairs_((37,_38),_(7,_8))
edgepairs_((37,_38),_(8,_9))
edgepairs_((37,_38),_(9,_10))
edgepairs_((37,_38),__1)
edgepairs_((38,_39),_(0,_1))
edgepairs_((38,_39),_(0,_17))
edgepairs_((38,_39),_(10,_11))
edgepairs_((38,_39),_(11,_12))
edgepairs_((38,_39),_(12,_13))
edgepairs_((38,_39),_(13,_14))
edgepairs_((38,_39),_(14,_15))
edgepairs_((38,_39),_(15,_16))
edgepairs_((38,_39),_(19,_21))
edgepairs_((38,_39),_(21,_22))
edgepairs_((38,_39),_(22,_23))
edgepairs_((38,_39),_(23,_24))
edgepairs_((38,_39),_(24,_25))
edgepairs_((38,_39),_(25,_26))
edgepairs_((38,_39),_(26,_27))
edgepairs_((38,_39),_(27,_28))
edgepairs_((38,_39),_(28,_29))
edgepairs_((38,_39),_(29,_30))
edgepairs_((38,_39),_(3,_5))
edgepairs_((38,_39),_(30,_31))
edgepairs_((38,_39),_(31,_32))
edgepairs_((38,_39),_(32,_33))
edgepairs_((38,_39),_(33,_34))
edgepairs_((38,_39),_(34,_35))
edgepairs_((38,_39),_(35,_36))
edgepairs_((38,_39),_(36,_37))
edgepairs_((38,_39),_(37,_38))
edgepairs_((38,_39),_(37,_39))
edgepairs_((38,_39),_(39,_40))
edgepairs_((38,_39),_(42,_44))
edgepairs_((38,_39),_(44,_45))
edgepairs_((38,_39),_(45,_46))
edgepairs_((38,_39),_(46,_47))
edgepairs_((38,_39),_(47,_48))
edgepairs_((38,_39),_(48,_49))
edgepairs_((38,_39),_(49,_50))
edgepairs_((38,_39),_(5,_6))
edgepairs_((38,_39),_(50,_51))
edgepairs_((38,_39),_(51,_52))
edgepairs_((38,_39),_(52,_53))
edgepairs_((38,_39),_(53,_54))
edgepairs_((38,_39),_(6,_7))
edgepairs_((38,_39),_(7,_8))
edgepairs_((38,_39),_(8,_9))
edgepairs_((38,_39),_(9,_10))
edgepairs_((38,_39),__1)
edgepairs_((39,_40),_(0,_1))
edgepairs_((39,_40),_(0,_17))
edgepairs_((39,_40),_(10,_11))
edgepairs_((39,_40),_(11,_12))
edgepairs_((39,_40),_(12,_13))
edgepairs_((39,_40),_(13,_14))
edgepairs_((39,_40),_(14,_15))
edgepairs_((39,_40),_(15,_16))
edgepairs_((39,_40),_(19,_21))
edgepairs_((39,_40),_(21,_22))
edgepairs_((39,_40),_(22,_23))
edgepairs_((39,_40),_(23,_24))
edgepairs_((39,_40),_(24,_25))
edgepairs_((39,_40),_(25,_26))
edgepairs_((39,_40),_(26,_27))
edgepairs_((39,_40),_(27,_28))
edgepairs_((39,_40),_(28,_29))
edgepairs_((39,_40),_(29,_30))
edgepairs_((39,_40),_(3,_5))
edgepairs_((39,_40),_(30,_31))
edgepairs_((39,_40),_(31,_32))
edgepairs_((39,_40),_(32,_33))
edgepairs_((39,_40),_(33,_34))
edgepairs_((39,_40),_(34,_35))
edgepairs_((39,_40),_(35,_36))
edgepairs_((39,_40),_(36,_37))
edgepairs_((39,_40),_(37,_38))
edgepairs_((39,_40),_(37,_39))
edgepairs_((39,_40),_(39,_40))
edgepairs_((39,_40),_(42,_44))
edgepairs_((39,_40),_(44,_45))
edgepairs_((39,_40),_(45,_46))
edgepairs_((39,_40),_(46,_47))
edgepairs_((39,_40),_(47,_48))
edgepairs_((39,_40),_(48,_49))
edgepairs_((39,_40),_(49,_50))
edgepairs_((39,_40),_(5,_6))
edgepairs_((39,_40),_(50,_51))
edgepairs_((39,_40),_(51,_52))
edgepairs_((39,_40),_(52,_53))
edgepairs_((39,_40),_(53,_54))
edgepairs_((39,_40),_(6,_7))
edgepairs_((39,_40),_(7,_8))
edgepairs_((39,_40),_(8,_9))
edgepairs_((39,_40),_(9,_10))
edgepairs_((39,_40),__1)
edgepairs_((40,_41),_(0,_1))
edgepairs_((40,_41),_(0,_17))
edgepairs_((40,_41),_(10,_11))
edgepairs_((40,_41),_(11,_12))
edgepairs_((40,_41),_(12,_13))
edgepairs_((40,_41),_(13,_14))
edgepairs_((40,_41),_(14,_15))
edgepairs_((40,_41),_(15,_16))
edgepairs_((40,_41),_(19,_21))
edgepairs_((40,_41),_(21,_22))
edgepairs_((40,_41),_(22,_23))
edgepairs_((40,_41),_(23,_24))
edgepairs_((40,_41),_(24,_25))
edgepairs_((40,_41),_(25,_26))
edgepairs_((40,_41),_(26,_27))
edgepairs_((40,_41),_(27,_28))
edgepairs_((40,_41),_(28,_29))
edgepairs_((40,_41),_(29,_30))
edgepairs_((40,_41),_(3,_5))
edgepairs_((40,_41),_(30,_31))
edgepairs_((40,_41),_(31,_32))
edgepairs_((40,_41),_(32,_33))
edgepairs_((40,_41),_(33,_34))
edgepairs_((40,_41),_(34,_35))
edgepairs_((40,_41),_(35,_36))
edgepairs_((40,_41),_(36,_37))
edgepairs_((40,_41),_(37,_38))
edgepairs_((40,_41),_(37,_39))
edgepairs_((40,_41),_(39,_40))
edgepairs_((40,_41),_(42,_44))
edgepairs_((40,_41),_(44,_45))
edgepairs_((40,_41),_(45,_46))
edgepairs_((40,_41),_(46,_47))
edgepairs_((40,_41),_(47,_48))
edgepairs_((40,_41),_(48,_49))
edgepairs_((40,_41),_(49,_50))
edgepairs_((40,_41),_(5,_6))
edgepairs_((40,_41),_(50,_51))
edgepairs_((40,_41),_(51,_52))
edgepairs_((40,_41),_(52,_53))
edgepairs_((40,_41),_(53,_54))
edgepairs_((40,_41),_(6,_7))
edgepairs_((40,_41),_(7,_8))
edgepairs_((40,_41),_(8,_9))
edgepairs_((40,_41),_(9,_10))
edgepairs_((40,_41),__1)
edgepairs_((40,_42),_(0,_1))
edgepairs_((40,_42),_(0,_17))
edgepairs_((40,_42),_(10,_11))
edgepairs_((40,_42),_(11,_12))
edgepairs_((40,_42),_(12,_13))
edgepairs_((40,_42),_(13,_14))
edgepairs_((40,_42),_(14,_15))
edgepairs_((40,_42),_(15,_16))
edgepairs_((40,_42),_(19,_21))
edgepairs_((40,_42),_(21,_22))
edgepairs_((40,_42),_(22,_23))
edgepairs_((40,_42),_(23,_24))
edgepairs_((40,_42),_(24,_25))
edgepairs_((40,_42),_(25,_26))
edgepairs_((40,_42),_(26,_27))
edgepairs_((40,_42),_(27,_28))
edgepairs_((40,_42),_(28,_29))
edgepairs_((40,_42),_(29,_30))
edgepairs_((40,_42),_(3,_5))
edgepairs_((40,_42),_(30,_31))
edgepairs_((40,_42),_(31,_32))
edgepairs_((40,_42),_(32,_33))
edgepairs_((40,_42),_(33,_34))
edgepairs_((40,_42),_(34,_35))
edgepairs_((40,_42),_(35,_36))
edgepairs_((40,_42),_(36,_37))
edgepairs_((40,_42),_(37,_38))
edgepairs_((40,_42),_(37,_39))
edgepairs_((40,_42),_(39,_40))
edgepairs_((40,_42),_(42,_44))
edgepairs_((40,_42),_(44,_45))
edgepairs_((40,_42),_(45,_46))
edgepairs_((40,_42),_(46,_47))
edgepairs_((40,_42),_(47,_48))
edgepairs_((40,_42),_(48,_49))
edgepairs_((40,_42),_(49,_50))
edgepairs_((40,_42),_(5,_6))
edgepairs_((40,_42),_(50,_51))
edgepairs_((40,_42),_(51,_52))
edgepairs_((40,_42),_(52,_53))
edgepairs_((40,_42),_(53,_54))
edgepairs_((40,_42),_(6,_7))
edgepairs_((40,_42),_(7,_8))
edgepairs_((40,_42),_(8,_9))
edgepairs_((40,_42),_(9,_10))
edgepairs_((40,_42),__1)
edgepairs_((43,_44),_(0,_41))
edgepairs_((43,_44),_(1,_2))
edgepairs_((43,_44),_(17,_18))
edgepairs_((43,_44),_(18,_19))
edgepairs_((43,_44),_(19,_20))
edgepairs_((43,_44),_(2,_3))
edgepairs_((43,_44),_(3,_4))
edgepairs_((43,_44),_(41,_42))
edgepairs_((43,_44),_(42,_43))
edgepairs_((43,_44),__1)
edgepairs_((44,_45),_(0,_41))
edgepairs_((44,_45),_(1,_2))
edgepairs_((44,_45),_(17,_18))
edgepairs_((44,_45),_(18,_19))
edgepairs_((44,_45),_(19,_20))
edgepairs_((44,_45),_(2,_3))
edgepairs_((44,_45),_(3,_4))
edgepairs_((44,_45),_(41,_42))
edgepairs_((44,_45),_(42,_43))
edgepairs_((44,_45),__1)
edgepairs_((44,_46),_(0,_1))
edgepairs_((44,_46),_(0,_17))
edgepairs_((44,_46),_(10,_11))
edgepairs_((44,_46),_(11,_12))
edgepairs_((44,_46),_(12,_13))
edgepairs_((44,_46),_(13,_14))
edgepairs_((44,_46),_(14,_15))
edgepairs_((44,_46),_(15,_16))
edgepairs_((44,_46),_(19,_21))
edgepairs_((44,_46),_(21,_22))
edgepairs_((44,_46),_(22,_23))
edgepairs_((44,_46),_(23,_24))
edgepairs_((44,_46),_(24,_25))
edgepairs_((44,_46),_(25,_26))
edgepairs_((44,_46),_(26,_27))
edgepairs_((44,_46),_(27,_28))
edgepairs_((44,_46),_(28,_29))
edgepairs_((44,_46),_(29,_30))
edgepairs_((44,_46),_(3,_5))
edgepairs_((44,_46),_(30,_31))
edgepairs_((44,_46),_(31,_32))
edgepairs_((44,_46),_(32,_33))
edgepairs_((44,_46),_(33,_34))
edgepairs_((44,_46),_(34,_35))
edgepairs_((44,_46),_(35,_36))
edgepairs_((44,_46),_(36,_37))
edgepairs_((44,_46),_(37,_38))
edgepairs_((44,_46),_(37,_39))
edgepairs_((44,_46),_(39,_40))
edgepairs_((44,_46),_(42,_44))
edgepairs_((44,_46),_(44,_45))
edgepairs_((44,_46),_(45,_46))
edgepairs_((44,_46),_(46,_47))
edgepairs_((44,_46),_(47,_48))
edgepairs_((44,_46),_(48,_49))
edgepairs_((44,_46),_(49,_50))
edgepairs_((44,_46),_(5,_6))
edgepairs_((44,_46),_(50,_51))
edgepairs_((44,_46),_(51,_52))
edgepairs_((44,_46),_(52,_53))
edgepairs_((44,_46),_(53,_54))
edgepairs_((44,_46),_(6,_7))
edgepairs_((44,_46),_(7,_8))
edgepairs_((44,_46),_(8,_9))
edgepairs_((44,_46),_(9,_10))
edgepairs_((44,_46),__1)
edgepairs_((46,_47),_(0,_1))
edgepairs_((46,_47),_(0,_17))
edgepairs_((46,_47),_(10,_11))
edgepairs_((46,_47),_(11,_12))
edgepairs_((46,_47),_(12,_13))
edgepairs_((46,_47),_(13,_14))
edgepairs_((46,_47),_(14,_15))
edgepairs_((46,_47),_(15,_16))
edgepairs_((46,_47),_(19,_21))
edgepairs_((46,_47),_(21,_22))
edgepairs_((46,_47),_(22,_23))
edgepairs_((46,_47),_(23,_24))
edgepairs_((46,_47),_(24,_25))
edgepairs_((46,_47),_(25,_26))
edgepairs_((46,_47),_(26,_27))
edgepairs_((46,_47),_(27,_28))
edgepairs_((46,_47),_(28,_29))
edgepairs_((46,_47),_(29,_30))
edgepairs_((46,_47),_(3,_5))
edgepairs_((46,_47),_(30,_31))
edgepairs_((46,_47),_(31,_32))
edgepairs_((46,_47),_(32,_33))
edgepairs_((46,_47),_(33,_34))
edgepairs_((46,_47),_(34,_35))
edgepairs_((46,_47),_(35,_36))
edgepairs_((46,_47),_(36,_37))
edgepairs_((46,_47),_(37,_38))
edgepairs_((46,_47),_(37,_39))
edgepairs_((46,_47),_(39,_40))
edgepairs_((46,_47),_(42,_44))
edgepairs_((46,_47),_(44,_45))
edgepairs_((46,_47),_(45,_46))
edgepairs_((46,_47),_(46,_47))
edgepairs_((46,_47),_(47,_48))
edgepairs_((46,_47),_(48,_49))
edgepairs_((46,_47),_(49,_50))
edgepairs_((46,_47),_(5,_6))
edgepairs_((46,_47),_(50,_51))
edgepairs_((46,_47),_(51,_52))
edgepairs_((46,_47),_(52,_53))
edgepairs_((46,_47),_(53,_54))
edgepairs_((46,_47),_(6,_7))
edgepairs_((46,_47),_(7,_8))
edgepairs_((46,_47),_(8,_9))
edgepairs_((46,_47),_(9,_10))
edgepairs_((46,_47),__1)
edgepairs_((47,_48),_(0,_1))
edgepairs_((47,_48),_(0,_17))
edgepairs_((47,_48),_(10,_11))
edgepairs_((47,_48),_(11,_12))
edgepairs_((47,_48),_(12,_13))
edgepairs_((47,_48),_(13,_14))
edgepairs_((47,_48),_(14,_15))
edgepairs_((47,_48),_(15,_16))
edgepairs_((47,_48),_(19,_21))
edgepairs_((47,_48),_(21,_22))
edgepairs_((47,_48),_(22,_23))
edgepairs_((47,_48),_(23,_24))
edgepairs_((47,_48),_(24,_25))
edgepairs_((47,_48),_(25,_26))
edgepairs_((47,_48),_(26,_27))
edgepairs_((47,_48),_(27,_28))
edgepairs_((47,_48),_(28,_29))
edgepairs_((47,_48),_(29,_30))
edgepairs_((47,_48),_(3,_5))
edgepairs_((47,_48),_(30,_31))
edgepairs_((47,_48),_(31,_32))
edgepairs_((47,_48),_(32,_33))
edgepairs_((47,_48),_(33,_34))
edgepairs_((47,_48),_(34,_35))
edgepairs_((47,_48),_(35,_36))
edgepairs_((47,_48),_(36,_37))
edgepairs_((47,_48),_(37,_38))
edgepairs_((47,_48),_(37,_39))
edgepairs_((47,_48),_(39,_40))
edgepairs_((47,_48),_(42,_44))
edgepairs_((47,_48),_(44,_45))
edgepairs_((47,_48),_(45,_46))
edgepairs_((47,_48),_(46,_47))
edgepairs_((47,_48),_(47,_48))
edgepairs_((47,_48),_(48,_49))
edgepairs_((47,_48),_(49,_50))
edgepairs_((47,_48),_(5,_6))
edgepairs_((47,_48),_(50,_51))
edgepairs_((47,_48),_(51,_52))
edgepairs_((47,_48),_(52,_53))
edgepairs_((47,_48),_(53,_54))
edgepairs_((47,_48),_(6,_7))
edgepairs_((47,_48),_(7,_8))
edgepairs_((47,_48),_(8,_9))
edgepairs_((47,_48),_(9,_10))
edgepairs_((47,_48),__1)
edgepairs_((48,_49),_(0,_1))
edgepairs_((48,_49),_(0,_17))
edgepairs_((48,_49),_(10,_11))
edgepairs_((48,_49),_(11,_12))
edgepairs_((48,_49),_(12,_13))
edgepairs_((48,_49),_(13,_14))
edgepairs_((48,_49),_(14,_15))
edgepairs_((48,_49),_(15,_16))
edgepairs_((48,_49),_(19,_21))
edgepairs_((48,_49),_(21,_22))
edgepairs_((48,_49),_(22,_23))
edgepairs_((48,_49),_(23,_24))
edgepairs_((48,_49),_(24,_25))
edgepairs_((48,_49),_(25,_26))
edgepairs_((48,_49),_(26,_27))
edgepairs_((48,_49),_(27,_28))
edgepairs_((48,_49),_(28,_29))
edgepairs_((48,_49),_(29,_30))
edgepairs_((48,_49),_(3,_5))
edgepairs_((48,_49),_(30,_31))
edgepairs_((48,_49),_(31,_32))
edgepairs_((48,_49),_(32,_33))
edgepairs_((48,_49),_(33,_34))
edgepairs_((48,_49),_(34,_35))
edgepairs_((48,_49),_(35,_36))
edgepairs_((48,_49),_(36,_37))
edgepairs_((48,_49),_(37,_38))
edgepairs_((48,_49),_(37,_39))
edgepairs_((48,_49),_(39,_40))
edgepairs_((48,_49),_(42,_44))
edgepairs_((48,_49),_(44,_45))
edgepairs_((48,_49),_(45,_46))
edgepairs_((48,_49),_(46,_47))
edgepairs_((48,_49),_(47,_48))
edgepairs_((48,_49),_(48,_49))
edgepairs_((48,_49),_(49,_50))
edgepairs_((48,_49),_(5,_6))
edgepairs_((48,_49),_(50,_51))
edgepairs_((48,_49),_(51,_52))
edgepairs_((48,_49),_(52,_53))
edgepairs_((48,_49),_(53,_54))
edgepairs_((48,_49),_(6,_7))
edgepairs_((48,_49),_(7,_8))
edgepairs_((48,_49),_(8,_9))
edgepairs_((48,_49),_(9,_10))
edgepairs_((48,_49),__1)
edgepairs_((49,_50),_(0,_1))
edgepairs_((49,_50),_(0,_17))
edgepairs_((49,_50),_(10,_11))
edgepairs_((49,_50),_(11,_12))
edgepairs_((49,_50),_(12,_13))
edgepairs_((49,_50),_(13,_14))
edgepairs_((49,_50),_(14,_15))
edgepairs_((49,_50),_(15,_16))
edgepairs_((49,_50),_(19,_21))
edgepairs_((49,_50),_(21,_22))
edgepairs_((49,_50),_(22,_23))
edgepairs_((49,_50),_(23,_24))
edgepairs_((49,_50),_(24,_25))
edgepairs_((49,_50),_(25,_26))
edgepairs_((49,_50),_(26,_27))
edgepairs_((49,_50),_(27,_28))
edgepairs_((49,_50),_(28,_29))
edgepairs_((49,_50),_(29,_30))
edgepairs_((49,_50),_(3,_5))
edgepairs_((49,_50),_(30,_31))
edgepairs_((49,_50),_(31,_32))
edgepairs_((49,_50),_(32,_33))
edgepairs_((49,_50),_(33,_34))
edgepairs_((49,_50),_(34,_35))
edgepairs_((49,_50),_(35,_36))
edgepairs_((49,_50),_(36,_37))
edgepairs_((49,_50),_(37,_38))
edgepairs_((49,_50),_(37,_39))
edgepairs_((49,_50),_(39,_40))
edgepairs_((49,_50),_(42,_44))
edgepairs_((49,_50),_(44,_45))
edgepairs_((49,_50),_(45,_46))
edgepairs_((49,_50),_(46,_47))
edgepairs_((49,_50),_(47,_48))
edgepairs_((49,_50),_(48,_49))
edgepairs_((49,_50),_(49,_50))
edgepairs_((49,_50),_(5,_6))
edgepairs_((49,_50),_(50,_51))
edgepairs_((49,_50),_(51,_52))
edgepairs_((49,_50),_(52,_53))
edgepairs_((49,_50),_(53,_54))
edgepairs_((49,_50),_(6,_7))
edgepairs_((49,_50),_(7,_8))
edgepairs_((49,_50),_(8,_9))
edgepairs_((49,_50),_(9,_10))
edgepairs_((49,_50),__1)
edgepairs_((5,_6),_(0,_1))
edgepairs_((5,_6),_(0,_17))
edgepairs_((5,_6),_(10,_11))
edgepairs_((5,_6),_(11,_12))
edgepairs_((5,_6),_(12,_13))
edgepairs_((5,_6),_(13,_14))
edgepairs_((5,_6),_(14,_15))
edgepairs_((5,_6),_(15,_16))
edgepairs_((5,_6),_(19,_21))
edgepairs_((5,_6),_(21,_22))
edgepairs_((5,_6),_(22,_23))
edgepairs_((5,_6),_(23,_24))
edgepairs_((5,_6),_(24,_25))
edgepairs_((5,_6),_(25,_26))
edgepairs_((5,_6),_(26,_27))
edgepairs_((5,_6),_(27,_28))
edgepairs_((5,_6),_(28,_29))
edgepairs_((5,_6),_(29,_30))
edgepairs_((5,_6),_(3,_5))
edgepairs_((5,_6),_(30,_31))
edgepairs_((5,_6),_(31,_32))
edgepairs_((5,_6),_(32,_33))
edgepairs_((5,_6),_(33,_34))
edgepairs_((5,_6),_(34,_35))
edgepairs_((5,_6),_(35,_36))
edgepairs_((5,_6),_(36,_37))
edgepairs_((5,_6),_(37,_38))
edgepairs_((5,_6),_(37,_39))
edgepairs_((5,_6),_(39,_40))
edgepairs_((5,_6),_(42,_44))
edgepairs_((5,_6),_(44,_45))
edgepairs_((5,_6),_(45,_46))
edgepairs_((5,_6),_(46,_47))
edgepairs_((5,_6),_(47,_48))
edgepairs_((5,_6),_(48,_49))
edgepairs_((5,_6),_(49,_50))
edgepairs_((5,_6),_(5,_6))
edgepairs_((5,_6),_(50,_51))
edgepairs_((5,_6),_(51,_52))
edgepairs_((5,_6),_(52,_53))
edgepairs_((5,_6),_(53,_54))
edgepairs_((5,_6),_(6,_7))
edgepairs_((5,_6),_(7,_8))
edgepairs_((5,_6),_(8,_9))
edgepairs_((5,_6),_(9,_10))
edgepairs_((5,_6),__1)
edgepairs_((50,_51),_(0,_1))
edgepairs_((50,_51),_(0,_17))
edgepairs_((50,_51),_(10,_11))
edgepairs_((50,_51),_(11,_12))
edgepairs_((50,_51),_(12,_13))
edgepairs_((50,_51),_(13,_14))
edgepairs_((50,_51),_(14,_15))
edgepairs_((50,_51),_(15,_16))
edgepairs_((50,_51),_(19,_21))
edgepairs_((50,_51),_(21,_22))
edgepairs_((50,_51),_(22,_23))
edgepairs_((50,_51),_(23,_24))
edgepairs_((50,_51),_(24,_25))
edgepairs_((50,_51),_(25,_26))
edgepairs_((50,_51),_(26,_27))
edgepairs_((50,_51),_(27,_28))
edgepairs_((50,_51),_(28,_29))
edgepairs_((50,_51),_(29,_30))
edgepairs_((50,_51),_(3,_5))
edgepairs_((50,_51),_(30,_31))
edgepairs_((50,_51),_(31,_32))
edgepairs_((50,_51),_(32,_33))
edgepairs_((50,_51),_(33,_34))
edgepairs_((50,_51),_(34,_35))
edgepairs_((50,_51),_(35,_36))
edgepairs_((50,_51),_(36,_37))
edgepairs_((50,_51),_(37,_38))
edgepairs_((50,_51),_(37,_39))
edgepairs_((50,_51),_(39,_40))
edgepairs_((50,_51),_(42,_44))
edgepairs_((50,_51),_(44,_45))
edgepairs_((50,_51),_(45,_46))
edgepairs_((50,_51),_(46,_47))
edgepairs_((50,_51),_(47,_48))
edgepairs_((50,_51),_(48,_49))
edgepairs_((50,_51),_(49,_50))
edgepairs_((50,_51),_(5,_6))
edgepairs_((50,_51),_(50,_51))
edgepairs_((50,_51),_(51,_52))
edgepairs_((50,_51),_(52,_53))
edgepairs_((50,_51),_(53,_54))
edgepairs_((50,_51),_(6,_7))
edgepairs_((50,_51),_(7,_8))
edgepairs_((50,_51),_(8,_9))
edgepairs_((50,_51),_(9,_10))
edgepairs_((50,_51),__1)
edgepairs_((51,_52),_(0,_1))
edgepairs_((51,_52),_(0,_17))
edgepairs_((51,_52),_(10,_11))
edgepairs_((51,_52),_(11,_12))
edgepairs_((51,_52),_(12,_13))
edgepairs_((51,_52),_(13,_14))
edgepairs_((51,_52),_(14,_15))
edgepairs_((51,_52),_(15,_16))
edgepairs_((51,_52),_(19,_21))
edgepairs_((51,_52),_(21,_22))
edgepairs_((51,_52),_(22,_23))
edgepairs_((51,_52),_(23,_24))
edgepairs_((51,_52),_(24,_25))
edgepairs_((51,_52),_(25,_26))
edgepairs_((51,_52),_(26,_27))
edgepairs_((51,_52),_(27,_28))
edgepairs_((51,_52),_(28,_29))
edgepairs_((51,_52),_(29,_30))
edgepairs_((51,_52),_(3,_5))
edgepairs_((51,_52),_(30,_31))
edgepairs_((51,_52),_(31,_32))
edgepairs_((51,_52),_(32,_33))
edgepairs_((51,_52),_(33,_34))
edgepairs_((51,_52),_(34,_35))
edgepairs_((51,_52),_(35,_36))
edgepairs_((51,_52),_(36,_37))
edgepairs_((51,_52),_(37,_38))
edgepairs_((51,_52),_(37,_39))
edgepairs_((51,_52),_(39,_40))
edgepairs_((51,_52),_(42,_44))
edgepairs_((51,_52),_(44,_45))
edgepairs_((51,_52),_(45,_46))
edgepairs_((51,_52),_(46,_47))
edgepairs_((51,_52),_(47,_48))
edgepairs_((51,_52),_(48,_49))
edgepairs_((51,_52),_(49,_50))
edgepairs_((51,_52),_(5,_6))
edgepairs_((51,_52),_(50,_51))
edgepairs_((51,_52),_(51,_52))
edgepairs_((51,_52),_(52,_53))
edgepairs_((51,_52),_(53,_54))
edgepairs_((51,_52),_(6,_7))
edgepairs_((51,_52),_(7,_8))
edgepairs_((51,_52),_(8,_9))
edgepairs_((51,_52),_(9,_10))
edgepairs_((51,_52),__1)
edgepairs_((52,_53),_(0,_1))
edgepairs_((52,_53),_(0,_17))
edgepairs_((52,_53),_(10,_11))
edgepairs_((52,_53),_(11,_12))
edgepairs_((52,_53),_(12,_13))
edgepairs_((52,_53),_(13,_14))
edgepairs_((52,_53),_(14,_15))
edgepairs_((52,_53),_(15,_16))
edgepairs_((52,_53),_(19,_21))
edgepairs_((52,_53),_(21,_22))
edgepairs_((52,_53),_(22,_23))
edgepairs_((52,_53),_(23,_24))
edgepairs_((52,_53),_(24,_25))
edgepairs_((52,_53),_(25,_26))
edgepairs_((52,_53),_(26,_27))
edgepairs_((52,_53),_(27,_28))
edgepairs_((52,_53),_(28,_29))
edgepairs_((52,_53),_(29,_30))
edgepairs_((52,_53),_(3,_5))
edgepairs_((52,_53),_(30,_31))
edgepairs_((52,_53),_(31,_32))
edgepairs_((52,_53),_(32,_33))
edgepairs_((52,_53),_(33,_34))
edgepairs_((52,_53),_(34,_35))
edgepairs_((52,_53),_(35,_36))
edgepairs_((52,_53),_(36,_37))
edgepairs_((52,_53),_(37,_38))
edgepairs_((52,_53),_(37,_39))
edgepairs_((52,_53),_(39,_40))
edgepairs_((52,_53),_(42,_44))
edgepairs_((52,_53),_(44,_45))
edgepairs_((52,_53),_(45,_46))
edgepairs_((52,_53),_(46,_47))
edgepairs_((52,_53),_(47,_48))
edgepairs_((52,_53),_(48,_49))
edgepairs_((52,_53),_(49,_50))
edgepairs_((52,_53),_(5,_6))
edgepairs_((52,_53),_(50,_51))
edgepairs_((52,_53),_(51,_52))
edgepairs_((52,_53),_(52,_53))
edgepairs_((52,_53),_(53,_54))
edgepairs_((52,_53),_(6,_7))
edgepairs_((52,_53),_(7,_8))
edgepairs_((52,_53),_(8,_9))
edgepairs_((52,_53),_(9,_10))
edgepairs_((52,_53),__1)
edgepairs_((53,_54),_(0,_1))
edgepairs_((53,_54),_(0,_17))
edgepairs_((53,_54),_(10,_11))
edgepairs_((53,_54),_(11,_12))
edgepairs_((53,_54),_(12,_13))
edgepairs_((53,_54),_(13,_14))
edgepairs_((53,_54),_(14,_15))
edgepairs_((53,_54),_(15,_16))
edgepairs_((53,_54),_(19,_21))
edgepairs_((53,_54),_(21,_22))
edgepairs_((53,_54),_(22,_23))
edgepairs_((53,_54),_(23,_24))
edgepairs_((53,_54),_(24,_25))
edgepairs_((53,_54),_(25,_26))
edgepairs_((53,_54),_(26,_27))
edgepairs_((53,_54),_(27,_28))
edgepairs_((53,_54),_(28,_29))
edgepairs_((53,_54),_(29,_30))
edgepairs_((53,_54),_(3,_5))
edgepairs_((53,_54),_(30,_31))
edgepairs_((53,_54),_(31,_32))
edgepairs_((53,_54),_(32,_33))
edgepairs_((53,_54),_(33,_34))
edgepairs_((53,_54),_(34,_35))
edgepairs_((53,_54),_(35,_36))
edgepairs_((53,_54),_(36,_37))
edgepairs_((53,_54),_(37,_38))
edgepairs_((53,_54),_(37,_39))
edgepairs_((53,_54),_(39,_40))
edgepairs_((53,_54),_(42,_44))
edgepairs_((53,_54),_(44,_45))
edgepairs_((53,_54),_(45,_46))
edgepairs_((53,_54),_(46,_47))
edgepairs_((53,_54),_(47,_48))
edgepairs_((53,_54),_(48,_49))
edgepairs_((53,_54),_(49,_50))
edgepairs_((53,_54),_(5,_6))
edgepairs_((53,_54),_(50,_51))
edgepairs_((53,_54),_(51,_52))
edgepairs_((53,_54),_(52,_53))
edgepairs_((53,_54),_(53,_54))
edgepairs_((53,_54),_(6,_7))
edgepairs_((53,_54),_(7,_8))
edgepairs_((53,_54),_(8,_9))
edgepairs_((53,_54),_(9,_10))
edgepairs_((53,_54),__1)
edgepairs_((6,_7),_(0,_1))
edgepairs_((6,_7),_(0,_17))
edgepairs_((6,_7),_(10,_11))
edgepairs_((6,_7),_(11,_12))
edgepairs_((6,_7),_(12,_13))
edgepairs_((6,_7),_(13,_14))
edgepairs_((6,_7),_(14,_15))
edgepairs_((6,_7),_(15,_16))
edgepairs_((6,_7),_(19,_21))
edgepairs_((6,_7),_(21,_22))
edgepairs_((6,_7),_(22,_23))
edgepairs_((6,_7),_(23,_24))
edgepairs_((6,_7),_(24,_25))
edgepairs_((6,_7),_(25,_26))
edgepairs_((6,_7),_(26,_27))
edgepairs_((6,_7),_(27,_28))
edgepairs_((6,_7),_(28,_29))
edgepairs_((6,_7),_(29,_30))
edgepairs_((6,_7),_(3,_5))
edgepairs_((6,_7),_(30,_31))
edgepairs_((6,_7),_(31,_32))
edgepairs_((6,_7),_(32,_33))
edgepairs_((6,_7),_(33,_34))
edgepairs_((6,_7),_(34,_35))
edgepairs_((6,_7),_(35,_36))
edgepairs_((6,_7),_(36,_37))
edgepairs_((6,_7),_(37,_38))
edgepairs_((6,_7),_(37,_39))
edgepairs_((6,_7),_(39,_40))
edgepairs_((6,_7),_(42,_44))
edgepairs_((6,_7),_(44,_45))
edgepairs_((6,_7),_(45,_46))
edgepairs_((6,_7),_(46,_47))
edgepairs_((6,_7),_(47,_48))
edgepairs_((6,_7),_(48,_49))
edgepairs_((6,_7),_(49,_50))
edgepairs_((6,_7),_(5,_6))
edgepairs_((6,_7),_(50,_51))
edgepairs_((6,_7),_(51,_52))
edgepairs_((6,_7),_(52,_53))
edgepairs_((6,_7),_(53,_54))
edgepairs_((6,_7),_(6,_7))
edgepairs_((6,_7),_(7,_8))
edgepairs_((6,_7),_(8,_9))
edgepairs_((6,_7),_(9,_10))
edgepairs_((6,_7),__1)
edgepairs_((7,_8),_(0,_1))
edgepairs_((7,_8),_(0,_17))
edgepairs_((7,_8),_(10,_11))
edgepairs_((7,_8),_(11,_12))
edgepairs_((7,_8),_(12,_13))
edgepairs_((7,_8),_(13,_14))
edgepairs_((7,_8),_(14,_15))
edgepairs_((7,_8),_(15,_16))
edgepairs_((7,_8),_(19,_21))
edgepairs_((7,_8),_(21,_22))
edgepairs_((7,_8),_(22,_23))
edgepairs_((7,_8),_(23,_24))
edgepairs_((7,_8),_(24,_25))
edgepairs_((7,_8),_(25,_26))
edgepairs_((7,_8),_(26,_27))
edgepairs_((7,_8),_(27,_28))
edgepairs_((7,_8),_(28,_29))
edgepairs_((7,_8),_(29,_30))
edgepairs_((7,_8),_(3,_5))
edgepairs_((7,_8),_(30,_31))
edgepairs_((7,_8),_(31,_32))
edgepairs_((7,_8),_(32,_33))
edgepairs_((7,_8),_(33,_34))
edgepairs_((7,_8),_(34,_35))
edgepairs_((7,_8),_(35,_36))
edgepairs_((7,_8),_(36,_37))
edgepairs_((7,_8),_(37,_38))
edgepairs_((7,_8),_(37,_39))
edgepairs_((7,_8),_(39,_40))
edgepairs_((7,_8),_(42,_44))
edgepairs_((7,_8),_(44,_45))
edgepairs_((7,_8),_(45,_46))
edgepairs_((7,_8),_(46,_47))
edgepairs_((7,_8),_(47,_48))
edgepairs_((7,_8),_(48,_49))
edgepairs_((7,_8),_(49,_50))
edgepairs_((7,_8),_(5,_6))
edgepairs_((7,_8),_(50,_51))
edgepairs_((7,_8),_(51,_52))
edgepairs_((7,_8),_(52,_53))
edgepairs_((7,_8),_(53,_54))
edgepairs_((7,_8),_(6,_7))
edgepairs_((7,_8),_(7,_8))
edgepairs_((7,_8),_(8,_9))
edgepairs_((7,_8),_(9,_10))
edgepairs_((7,_8),__1)
edgepairs_((8,_9),_(0,_1))
edgepairs_((8,_9),_(0,_17))
edgepairs_((8,_9),_(10,_11))
edgepairs_((8,_9),_(11,_12))
edgepairs_((8,_9),_(12,_13))
edgepairs_((8,_9),_(13,_14))
edgepairs_((8,_9),_(14,_15))
edgepairs_((8,_9),_(15,_16))
edgepairs_((8,_9),_(19,_21))
edgepairs_((8,_9),_(21,_22))
edgepairs_((8,_9),_(22,_23))
edgepairs_((8,_9),_(23,_24))
edgepairs_((8,_9),_(24,_25))
edgepairs_((8,_9),_(25,_26))
edgepairs_((8,_9),_(26,_27))
edgepairs_((8,_9),_(27,_28))
edgepairs_((8,_9),_(28,_29))
edgepairs_((8,_9),_(29,_30))
edgepairs_((8,_9),_(3,_5))
edgepairs_((8,_9),_(30,_31))
edgepairs_((8,_9),_(31,_32))
edgepairs_((8,_9),_(32,_33))
edgepairs_((8,_9),_(33,_34))
edgepairs_((8,_9),_(34,_35))
edgepairs_((8,_9),_(35,_36))
edgepairs_((8,_9),_(36,_37))
edgepairs_((8,_9),_(37,_38))
edgepairs_((8,_9),_(37,_39))
edgepairs_((8,_9),_(39,_40))
edgepairs_((8,_9),_(42,_44))
edgepairs_((8,_9),_(44,_45))
edgepairs_((8,_9),_(45,_46))
edgepairs_((8,_9),_(46,_47))
edgepairs_((8,_9),_(47,_48))
edgepairs_((8,_9),_(48,_49))
edgepairs_((8,_9),_(49,_50))
edgepairs_((8,_9),_(5,_6))
edgepairs_((8,_9),_(50,_51))
edgepairs_((8,_9),_(51,_52))
edgepairs_((8,_9),_(52,_53))
edgepairs_((8,_9),_(53,_54))
edgepairs_((8,_9),_(6,_7))
edgepairs_((8,_9),_(7,_8))
edgepairs_((8,_9),_(8,_9))
edgepairs_((8,_9),_(9,_10))
edgepairs_((8,_9),__1)
edgepairs_((9,_10),_(0,_1))
edgepairs_((9,_10),_(0,_17))
edgepairs_((9,_10),_(10,_11))
edgepairs_((9,_10),_(11,_12))
edgepairs_((9,_10),_(12,_13))
edgepairs_((9,_10),_(13,_14))
edgepairs_((9,_10),_(14,_15))
edgepairs_((9,_10),_(15,_16))
edgepairs_((9,_10),_(19,_21))
edgepairs_((9,_10),_(21,_22))
edgepairs_((9,_10),_(22,_23))
edgepairs_((9,_10),_(23,_24))
edgepairs_((9,_10),_(24,_25))
edgepairs_((9,_10),_(25,_26))
edgepairs_((9,_10),_(26,_27))
edgepairs_((9,_10),_(27,_28))
edgepairs_((9,_10),_(28,_29))
edgepairs_((9,_10),_(29,_30))
edgepairs_((9,_10),_(3,_5))
edgepairs_((9,_10),_(30,_31))
edgepairs_((9,_10),_(31,_32))
edgepairs_((9,_10),_(32,_33))
edgepairs_((9,_10),_(33,_34))
edgepairs_((9,_10),_(34,_35))
edgepairs_((9,_10),_(35,_36))
edgepairs_((9,_10),_(36,_37))
edgepairs_((9,_10),_(37,_38))
edgepairs_((9,_10),_(37,_39))
edgepairs_((9,_10),_(39,_40))
edgepairs_((9,_10),_(42,_44))
edgepairs_((9,_10),_(44,_45))
edgepairs_((9,_10),_(45,_46))
edgepairs_((9,_10),_(46,_47))
edgepairs_((9,_10),_(47,_48))
edgepairs_((9,_10),_(48,_49))
edgepairs_((9,_10),_(49,_50))
edgepairs_((9,_10),_(5,_6))
edgepairs_((9,_10),_(50,_51))
edgepairs_((9,_10),_(51,_52))
edgepairs_((9,_10),_(52,_53))
edgepairs_((9,_10),_(53,_54))
edgepairs_((9,_10),_(6,_7))
edgepairs_((9,_10),_(7,_8))
edgepairs_((9,_10),_(8,_9))
edgepairs_((9,_10),_(9,_10))
edgepairs_((9,_10),__1)
edgepairs_(_1,_(0,_1))
edgepairs_(_1,_(0,_17))
edgepairs_(_1,_(0,_41))
edgepairs_(_1,_(1,_2))
edgepairs_(_1,_(10,_11))
edgepairs_(_1,_(11,_12))
edgepairs_(_1,_(12,_13))
edgepairs_(_1,_(13,_14))
edgepairs_(_1,_(14,_15))
edgepairs_(_1,_(15,_16))
edgepairs_(_1,_(17,_18))
edgepairs_(_1,_(18,_19))
edgepairs_(_1,_(19,_20))
edgepairs_(_1,_(19,_21))
edgepairs_(_1,_(2,_3))
edgepairs_(_1,_(21,_22))
edgepairs_(_1,_(22,_23))
edgepairs_(_1,_(23,_24))
edgepairs_(_1,_(24,_25))
edgepairs_(_1,_(25,_26))
edgepairs_(_1,_(26,_27))
edgepairs_(_1,_(27,_28))
edgepairs_(_1,_(28,_29))
edgepairs_(_1,_(29,_30))
edgepairs_(_1,_(3,_4))
edgepairs_(_1,_(3,_5))
edgepairs_(_1,_(30,_31))
edgepairs_(_1,_(31,_32))
edgepairs_(_1,_(32,_33))
edgepairs_(_1,_(33,_34))
edgepairs_(_1,_(34,_35))
edgepairs_(_1,_(35,_36))
edgepairs_(_1,_(36,_37))
edgepairs_(_1,_(37,_38))
edgepairs_(_1,_(37,_39))
edgepairs_(_1,_(39,_40))
edgepairs_(_1,_(41,_42))
edgepairs_(_1,_(42,_43))
edgepairs_(_1,_(42,_44))
edgepairs_(_1,_(44,_45))
edgepairs_(_1,_(45,_46))
edgepairs_(_1,_(46,_47))
edgepairs_(_1,_(47,_48))
edgepairs_(_1,_(48,_49))
edgepairs_(_1,_(49,_50))
edgepairs_(_1,_(5,_6))
edgepairs_(_1,_(50,_51))
edgepairs_(_1,_(51,_52))
edgepairs_(_1,_(52,_53))
edgepairs_(_1,_(53,_54))
edgepairs_(_1,_(6,_7))
edgepairs_(_1,_(7,_8))
edgepairs_(_1,_(8,_9))
edgepairs_(_1,_(9,_10))
nodepairs_(0,_0)
nodepairs_(0,_1)
nodepairs_(0,_10)
nodepairs_(0,_11)
nodepairs_(0,_12)
nodepairs_(0,_13)
nodepairs_(0,_14)
nodepairs_(0,_15)
nodepairs_(0,_16)
nodepairs_(0,_17)
nodepairs_(0,_19)
nodepairs_(0,_21)
nodepairs_(0,_22)
nodepairs_(0,_23)
nodepairs_(0,_24)
nodepairs_(0,_25)
nodepairs_(0,_26)
nodepairs_(0,_27)
nodepairs_(0,_28)
nodepairs_(0,_29)
nodepairs_(0,_3)
nodepairs_(0,_30)
nodepairs_(0,_31)
nodepairs_(0,_32)
nodepairs_(0,_33)
nodepairs_(0,_34)
nodepairs_(0,_35)
nodepairs_(0,_36)
nodepairs_(0,_37)
nodepairs_(0,_38)
nodepairs_(0,_39)
nodepairs_(0,_40)
nodepairs_(0,_42)
nodepairs_(0,_44)
nodepairs_(0,_45)
nodepairs_(0,_46)
nodepairs_(0,_47)
nodepairs_(0,_48)
nodepairs_(0,_49)
nodepairs_(0,_5)
nodepairs_(0,_50)
nodepairs_(0,_51)
nodepairs_(0,_52)
nodepairs_(0,_53)
nodepairs_(0,_54)
nodepairs_(0,_6)
nodepairs_(0,_7)
nodepairs_(0,_8)
nodepairs_(0,_9)
nodepairs_(1,_0)
nodepairs_(1,_1)
nodepairs_(1,_10)
nodepairs_(1,_11)
nodepairs_(1,_12)
nodepairs_(1,_13)
nodepairs_(1,_14)
nodepairs_(1,_15)
nodepairs_(1,_16)
nodepairs_(1,_17)
nodepairs_(1,_19)
nodepairs_(1,_21)
nodepairs_(1,_22)
nodepairs_(1,_23)
nodepairs_(1,_24)
nodepairs_(1,_25)
nodepairs_(1,_26)
nodepairs_(1,_27)
nodepairs_(1,_28)
nodepairs_(1,_29)
nodepairs_(1,_3)
nodepairs_(1,_30)
nodepairs_(1,_31)
nodepairs_(1,_32)
nodepairs_(1,_33)
nodepairs_(1,_34)
nodepairs_(1,_35)
nodepairs_(1,_36)
nodepairs_(1,_37)
nodepairs_(1,_38)
nodepairs_(1,_39)
nodepairs_(1,_40)
nodepairs_(1,_42)
nodepairs_(1,_44)
nodepairs_(1,_45)
nodepairs_(1,_46)
nodepairs_(1,_47)
nodepairs_(1,_48)
nodepairs_(1,_49)
nodepairs_(1,_5)
nodepairs_(1,_50)
nodepairs_(1,_51)
nodepairs_(1,_52)
nodepairs_(1,_53)
nodepairs_(1,_54)
nodepairs_(1,_6)
nodepairs_(1,_7)
nodepairs_(1,_8)
nodepairs_(1,_9)
nodepairs_(10,_0)
nodepairs_(10,_1)
nodepairs_(10,_10)
nodepairs_(10,_11)
nodepairs_(10,_12)
nodepairs_(10,_13)
nodepairs_(10,_14)
nodepairs_(10,_15)
nodepairs_(10,_16)
nodepairs_(10,_17)
nodepairs_(10,_19)
nodepairs_(10,_21)
nodepairs_(10,_22)
nodepairs_(10,_23)
nodepairs_(10,_24)
nodepairs_(10,_25)
nodepairs_(10,_26)
nodepairs_(10,_27)
nodepairs_(10,_28)
nodepairs_(10,_29)
nodepairs_(10,_3)
nodepairs_(10,_30)
nodepairs_(10,_31)
nodepairs_(10,_32)
nodepairs_(10,_33)
nodepairs_(10,_34)
nodepairs_(10,_35)
nodepairs_(10,_36)
nodepairs_(10,_37)
nodepairs_(10,_38)
nodepairs_(10,_39)
nodepairs_(10,_40)
nodepairs_(10,_42)
nodepairs_(10,_44)
nodepairs_(10,_45)
nodepairs_(10,_46)
nodepairs_(10,_47)
nodepairs_(10,_48)
nodepairs_(10,_49)
nodepairs_(10,_5)
nodepairs_(10,_50)
nodepairs_(10,_51)
nodepairs_(10,_52)
nodepairs_(10,_53)
nodepairs_(10,_54)
nodepairs_(10,_6)
nodepairs_(10,_7)
nodepairs_(10,_8)
nodepairs_(10,_9)
nodepairs_(11,_0)
nodepairs_(11,_1)
nodepairs_(11,_10)
nodepairs_(11,_11)
nodepairs_(11,_12)
nodepairs_(11,_13)
nodepairs_(11,_14)
nodepairs_(11,_15)
nodepairs_(11,_16)
nodepairs_(11,_17)
nodepairs_(11,_19)
nodepairs_(11,_21)
nodepairs_(11,_22)
nodepairs_(11,_23)
nodepairs_(11,_24)
nodepairs_(11,_25)
nodepairs_(11,_26)
nodepairs_(11,_27)
nodepairs_(11,_28)
nodepairs_(11,_29)
nodepairs_(11,_3)
nodepairs_(11,_30)
nodepairs_(11,_31)
nodepairs_(11,_32)
nodepairs_(11,_33)
nodepairs_(11,_34)
nodepairs_(11,_35)
nodepairs_(11,_36)
nodepairs_(11,_37)
nodepairs_(11,_38)
nodepairs_(11,_39)
nodepairs_(11,_40)
nodepairs_(11,_42)
nodepairs_(11,_44)
nodepairs_(11,_45)
nodepairs_(11,_46)
nodepairs_(11,_47)
nodepairs_(11,_48)
nodepairs_(11,_49)
nodepairs_(11,_5)
nodepairs_(11,_50)
nodepairs_(11,_51)
nodepairs_(11,_52)
nodepairs_(11,_53)
nodepairs_(11,_54)
nodepairs_(11,_6)
nodepairs_(11,_7)
nodepairs_(11,_8)
nodepairs_(11,_9)
nodepairs_(12,_0)
nodepairs_(12,_1)
nodepairs_(12,_10)
nodepairs_(12,_11)
nodepairs_(12,_12)
nodepairs_(12,_13)
nodepairs_(12,_14)
nodepairs_(12,_15)
nodepairs_(12,_16)
nodepairs_(12,_17)
nodepairs_(12,_19)
nodepairs_(12,_21)
nodepairs_(12,_22)
nodepairs_(12,_23)
nodepairs_(12,_24)
nodepairs_(12,_25)
nodepairs_(12,_26)
nodepairs_(12,_27)
nodepairs_(12,_28)
nodepairs_(12,_29)
nodepairs_(12,_3)
nodepairs_(12,_30)
nodepairs_(12,_31)
nodepairs_(12,_32)
nodepairs_(12,_33)
nodepairs_(12,_34)
nodepairs_(12,_35)
nodepairs_(12,_36)
nodepairs_(12,_37)
nodepairs_(12,_38)
nodepairs_(12,_39)
nodepairs_(12,_40)
nodepairs_(12,_42)
nodepairs_(12,_44)
nodepairs_(12,_45)
nodepairs_(12,_46)
nodepairs_(12,_47)
nodepairs_(12,_48)
nodepairs_(12,_49)
nodepairs_(12,_5)
nodepairs_(12,_50)
nodepairs_(12,_51)
nodepairs_(12,_52)
nodepairs_(12,_53)
nodepairs_(12,_54)
nodepairs_(12,_6)
nodepairs_(12,_7)
nodepairs_(12,_8)
nodepairs_(12,_9)
nodepairs_(13,_0)
nodepairs_(13,_1)
nodepairs_(13,_10)
nodepairs_(13,_11)
nodepairs_(13,_12)
nodepairs_(13,_13)
nodepairs_(13,_14)
nodepairs_(13,_15)
nodepairs_(13,_16)
nodepairs_(13,_17)
nodepairs_(13,_19)
nodepairs_(13,_21)
nodepairs_(13,_22)
nodepairs_(13,_23)
nodepairs_(13,_24)
nodepairs_(13,_25)
nodepairs_(13,_26)
nodepairs_(13,_27)
nodepairs_(13,_28)
nodepairs_(13,_29)
nodepairs_(13,_3)
nodepairs_(13,_30)
nodepairs_(13,_31)
nodepairs_(13,_32)
nodepairs_(13,_33)
nodepairs_(13,_34)
nodepairs_(13,_35)
nodepairs_(13,_36)
nodepairs_(13,_37)
nodepairs_(13,_38)
nodepairs_(13,_39)
nodepairs_(13,_40)
nodepairs_(13,_42)
nodepairs_(13,_44)
nodepairs_(13,_45)
nodepairs_(13,_46)
nodepairs_(13,_47)
nodepairs_(13,_48)
nodepairs_(13,_49)
nodepairs_(13,_5)
nodepairs_(13,_50)
nodepairs_(13,_51)
nodepairs_(13,_52)
nodepairs_(13,_53)
nodepairs_(13,_54)
nodepairs_(13,_6)
nodepairs_(13,_7)
nodepairs_(13,_8)
nodepairs_(13,_9)
nodepairs_(14,_0)
nodepairs_(14,_1)
nodepairs_(14,_10)
nodepairs_(14,_11)
nodepairs_(14,_12)
nodepairs_(14,_13)
nodepairs_(14,_14)
nodepairs_(14,_15)
nodepairs_(14,_16)
nodepairs_(14,_17)
nodepairs_(14,_19)
nodepairs_(14,_21)
nodepairs_(14,_22)
nodepairs_(14,_23)
nodepairs_(14,_24)
nodepairs_(14,_25)
nodepairs_(14,_26)
nodepairs_(14,_27)
nodepairs_(14,_28)
nodepairs_(14,_29)
nodepairs_(14,_3)
nodepairs_(14,_30)
nodepairs_(14,_31)
nodepairs_(14,_32)
nodepairs_(14,_33)
nodepairs_(14,_34)
nodepairs_(14,_35)
nodepairs_(14,_36)
nodepairs_(14,_37)
nodepairs_(14,_38)
nodepairs_(14,_39)
nodepairs_(14,_40)
nodepairs_(14,_42)
nodepairs_(14,_44)
nodepairs_(14,_45)
nodepairs_(14,_46)
nodepairs_(14,_47)
nodepairs_(14,_48)
nodepairs_(14,_49)
nodepairs_(14,_5)
nodepairs_(14,_50)
nodepairs_(14,_51)
nodepairs_(14,_52)
nodepairs_(14,_53)
nodepairs_(14,_54)
nodepairs_(14,_6)
nodepairs_(14,_7)
nodepairs_(14,_8)
nodepairs_(14,_9)
nodepairs_(15,_0)
nodepairs_(15,_1)
nodepairs_(15,_10)
nodepairs_(15,_11)
nodepairs_(15,_12)
nodepairs_(15,_13)
nodepairs_(15,_14)
nodepairs_(15,_15)
nodepairs_(15,_16)
nodepairs_(15,_17)
nodepairs_(15,_19)
nodepairs_(15,_21)
nodepairs_(15,_22)
nodepairs_(15,_23)
nodepairs_(15,_24)
nodepairs_(15,_25)
nodepairs_(15,_26)
nodepairs_(15,_27)
nodepairs_(15,_28)
nodepairs_(15,_29)
nodepairs_(15,_3)
nodepairs_(15,_30)
nodepairs_(15,_31)
nodepairs_(15,_32)
nodepairs_(15,_33)
nodepairs_(15,_34)
nodepairs_(15,_35)
nodepairs_(15,_36)
nodepairs_(15,_37)
nodepairs_(15,_38)
nodepairs_(15,_39)
nodepairs_(15,_40)
nodepairs_(15,_42)
nodepairs_(15,_44)
nodepairs_(15,_45)
nodepairs_(15,_46)
nodepairs_(15,_47)
nodepairs_(15,_48)
nodepairs_(15,_49)
nodepairs_(15,_5)
nodepairs_(15,_50)
nodepairs_(15,_51)
nodepairs_(15,_52)
nodepairs_(15,_53)
nodepairs_(15,_54)
nodepairs_(15,_6)
nodepairs_(15,_7)
nodepairs_(15,_8)
nodepairs_(15,_9)
nodepairs_(16,_0)
nodepairs_(16,_1)
nodepairs_(16,_10)
nodepairs_(16,_11)
nodepairs_(16,_12)
nodepairs_(16,_13)
nodepairs_(16,_14)
nodepairs_(16,_15)
nodepairs_(16,_16)
nodepairs_(16,_17)
nodepairs_(16,_19)
nodepairs_(16,_21)
nodepairs_(16,_22)
nodepairs_(16,_23)
nodepairs_(16,_24)
nodepairs_(16,_25)
nodepairs_(16,_26)
nodepairs_(16,_27)
nodepairs_(16,_28)
nodepairs_(16,_29)
nodepairs_(16,_3)
nodepairs_(16,_30)
nodepairs_(16,_31)
nodepairs_(16,_32)
nodepairs_(16,_33)
nodepairs_(16,_34)
nodepairs_(16,_35)
nodepairs_(16,_36)
nodepairs_(16,_37)
nodepairs_(16,_38)
nodepairs_(16,_39)
nodepairs_(16,_40)
nodepairs_(16,_42)
nodepairs_(16,_44)
nodepairs_(16,_45)
nodepairs_(16,_46)
nodepairs_(16,_47)
nodepairs_(16,_48)
nodepairs_(16,_49)
nodepairs_(16,_5)
nodepairs_(16,_50)
nodepairs_(16,_51)
nodepairs_(16,_52)
nodepairs_(16,_53)
nodepairs_(16,_54)
nodepairs_(16,_6)
nodepairs_(16,_7)
nodepairs_(16,_8)
nodepairs_(16,_9)
nodepairs_(17,_0)
nodepairs_(17,_1)
nodepairs_(17,_10)
nodepairs_(17,_11)
nodepairs_(17,_12)
nodepairs_(17,_13)
nodepairs_(17,_14)
nodepairs_(17,_15)
nodepairs_(17,_16)
nodepairs_(17,_17)
nodepairs_(17,_19)
nodepairs_(17,_21)
nodepairs_(17,_22)
nodepairs_(17,_23)
nodepairs_(17,_24)
nodepairs_(17,_25)
nodepairs_(17,_26)
nodepairs_(17,_27)
nodepairs_(17,_28)
nodepairs_(17,_29)
nodepairs_(17,_3)
nodepairs_(17,_30)
nodepairs_(17,_31)
nodepairs_(17,_32)
nodepairs_(17,_33)
nodepairs_(17,_34)
nodepairs_(17,_35)
nodepairs_(17,_36)
nodepairs_(17,_37)
nodepairs_(17,_38)
nodepairs_(17,_39)
nodepairs_(17,_40)
nodepairs_(17,_42)
nodepairs_(17,_44)
nodepairs_(17,_45)
nodepairs_(17,_46)
nodepairs_(17,_47)
nodepairs_(17,_48)
nodepairs_(17,_49)
nodepairs_(17,_5)
nodepairs_(17,_50)
nodepairs_(17,_51)
nodepairs_(17,_52)
nodepairs_(17,_53)
nodepairs_(17,_54)
nodepairs_(17,_6)
nodepairs_(17,_7)
nodepairs_(17,_8)
nodepairs_(17,_9)
nodepairs_(18,_0)
nodepairs_(18,_1)
nodepairs_(18,_10)
nodepairs_(18,_11)
nodepairs_(18,_12)
nodepairs_(18,_13)
nodepairs_(18,_14)
nodepairs_(18,_15)
nodepairs_(18,_16)
nodepairs_(18,_17)
nodepairs_(18,_19)
nodepairs_(18,_21)
nodepairs_(18,_22)
nodepairs_(18,_23)
nodepairs_(18,_24)
nodepairs_(18,_25)
nodepairs_(18,_26)
nodepairs_(18,_27)
nodepairs_(18,_28)
nodepairs_(18,_29)
nodepairs_(18,_3)
nodepairs_(18,_30)
nodepairs_(18,_31)
nodepairs_(18,_32)
nodepairs_(18,_33)
nodepairs_(18,_34)
nodepairs_(18,_35)
nodepairs_(18,_36)
nodepairs_(18,_37)
nodepairs_(18,_38)
nodepairs_(18,_39)
nodepairs_(18,_40)
nodepairs_(18,_42)
nodepairs_(18,_44)
nodepairs_(18,_45)
nodepairs_(18,_46)
nodepairs_(18,_47)
nodepairs_(18,_48)
nodepairs_(18,_49)
nodepairs_(18,_5)
nodepairs_(18,_50)
nodepairs_(18,_51)
nodepairs_(18,_52)
nodepairs_(18,_53)
nodepairs_(18,_54)
nodepairs_(18,_6)
nodepairs_(18,_7)
nodepairs_(18,_8)
nodepairs_(18,_9)
nodepairs_(19,_0)
nodepairs_(19,_1)
nodepairs_(19,_10)
nodepairs_(19,_11)
nodepairs_(19,_12)
nodepairs_(19,_13)
nodepairs_(19,_14)
nodepairs_(19,_15)
nodepairs_(19,_16)
nodepairs_(19,_17)
nodepairs_(19,_19)
nodepairs_(19,_21)
nodepairs_(19,_22)
nodepairs_(19,_23)
nodepairs_(19,_24)
nodepairs_(19,_25)
nodepairs_(19,_26)
nodepairs_(19,_27)
nodepairs_(19,_28)
nodepairs_(19,_29)
nodepairs_(19,_3)
nodepairs_(19,_30)
nodepairs_(19,_31)
nodepairs_(19,_32)
nodepairs_(19,_33)
nodepairs_(19,_34)
nodepairs_(19,_35)
nodepairs_(19,_36)
nodepairs_(19,_37)
nodepairs_(19,_38)
nodepairs_(19,_39)
nodepairs_(19,_40)
nodepairs_(19,_42)
nodepairs_(19,_44)
nodepairs_(19,_45)
nodepairs_(19,_46)
nodepairs_(19,_47)
nodepairs_(19,_48)
nodepairs_(19,_49)
nodepairs_(19,_5)
nodepairs_(19,_50)
nodepairs_(19,_51)
nodepairs_(19,_52)
nodepairs_(19,_53)
nodepairs_(19,_54)
nodepairs_(19,_6)
nodepairs_(19,_7)
nodepairs_(19,_8)
nodepairs_(19,_9)
nodepairs_(2,_18)
nodepairs_(2,_2)
nodepairs_(2,_20)
nodepairs_(2,_4)
nodepairs_(2,_41)
nodepairs_(2,_43)
nodepairs_(20,_0)
nodepairs_(20,_1)
nodepairs_(20,_10)
nodepairs_(20,_11)
nodepairs_(20,_12)
nodepairs_(20,_13)
nodepairs_(20,_14)
nodepairs_(20,_15)
nodepairs_(20,_16)
nodepairs_(20,_17)
nodepairs_(20,_19)
nodepairs_(20,_21)
nodepairs_(20,_22)
nodepairs_(20,_23)
nodepairs_(20,_24)
nodepairs_(20,_25)
nodepairs_(20,_26)
nodepairs_(20,_27)
nodepairs_(20,_28)
nodepairs_(20,_29)
nodepairs_(20,_3)
nodepairs_(20,_30)
nodepairs_(20,_31)
nodepairs_(20,_32)
nodepairs_(20,_33)
nodepairs_(20,_34)
nodepairs_(20,_35)
nodepairs_(20,_36)
nodepairs_(20,_37)
nodepairs_(20,_38)
nodepairs_(20,_39)
nodepairs_(20,_40)
nodepairs_(20,_42)
nodepairs_(20,_44)
nodepairs_(20,_45)
nodepairs_(20,_46)
nodepairs_(20,_47)
nodepairs_(20,_48)
nodepairs_(20,_49)
nodepairs_(20,_5)
nodepairs_(20,_50)
nodepairs_(20,_51)
nodepairs_(20,_52)
nodepairs_(20,_53)
nodepairs_(20,_54)
nodepairs_(20,_6)
nodepairs_(20,_7)
nodepairs_(20,_8)
nodepairs_(20,_9)
nodepairs_(21,_0)
nodepairs_(21,_1)
nodepairs_(21,_10)
nodepairs_(21,_11)
nodepairs_(21,_12)
nodepairs_(21,_13)
nodepairs_(21,_14)
nodepairs_(21,_15)
nodepairs_(21,_16)
nodepairs_(21,_17)
nodepairs_(21,_19)
nodepairs_(21,_21)
nodepairs_(21,_22)
nodepairs_(21,_23)
nodepairs_(21,_24)
nodepairs_(21,_25)
nodepairs_(21,_26)
nodepairs_(21,_27)
nodepairs_(21,_28)
nodepairs_(21,_29)
nodepairs_(21,_3)
nodepairs_(21,_30)
nodepairs_(21,_31)
nodepairs_(21,_32)
nodepairs_(21,_33)
nodepairs_(21,_34)
nodepairs_(21,_35)
nodepairs_(21,_36)
nodepairs_(21,_37)
nodepairs_(21,_38)
nodepairs_(21,_39)
nodepairs_(21,_40)
nodepairs_(21,_42)
nodepairs_(21,_44)
nodepairs_(21,_45)
nodepairs_(21,_46)
nodepairs_(21,_47)
nodepairs_(21,_48)
nodepairs_(21,_49)
nodepairs_(21,_5)
nodepairs_(21,_50)
nodepairs_(21,_51)
nodepairs_(21,_52)
nodepairs_(21,_53)
nodepairs_(21,_54)
nodepairs_(21,_6)
nodepairs_(21,_7)
nodepairs_(21,_8)
nodepairs_(21,_9)
nodepairs_(22,_0)
nodepairs_(22,_1)
nodepairs_(22,_10)
nodepairs_(22,_11)
nodepairs_(22,_12)
nodepairs_(22,_13)
nodepairs_(22,_14)
nodepairs_(22,_15)
nodepairs_(22,_16)
nodepairs_(22,_17)
nodepairs_(22,_19)
nodepairs_(22,_21)
nodepairs_(22,_22)
nodepairs_(22,_23)
nodepairs_(22,_24)
nodepairs_(22,_25)
nodepairs_(22,_26)
nodepairs_(22,_27)
nodepairs_(22,_28)
nodepairs_(22,_29)
nodepairs_(22,_3)
nodepairs_(22,_30)
nodepairs_(22,_31)
nodepairs_(22,_32)
nodepairs_(22,_33)
nodepairs_(22,_34)
nodepairs_(22,_35)
nodepairs_(22,_36)
nodepairs_(22,_37)
nodepairs_(22,_38)
nodepairs_(22,_39)
nodepairs_(22,_40)
nodepairs_(22,_42)
nodepairs_(22,_44)
nodepairs_(22,_45)
nodepairs_(22,_46)
nodepairs_(22,_47)
nodepairs_(22,_48)
nodepairs_(22,_49)
nodepairs_(22,_5)
nodepairs_(22,_50)
nodepairs_(22,_51)
nodepairs_(22,_52)
nodepairs_(22,_53)
nodepairs_(22,_54)
nodepairs_(22,_6)
nodepairs_(22,_7)
nodepairs_(22,_8)
nodepairs_(22,_9)
nodepairs_(23,_0)
nodepairs_(23,_1)
nodepairs_(23,_10)
nodepairs_(23,_11)
nodepairs_(23,_12)
nodepairs_(23,_13)
nodepairs_(23,_14)
nodepairs_(23,_15)
nodepairs_(23,_16)
nodepairs_(23,_17)
nodepairs_(23,_19)
nodepairs_(23,_21)
nodepairs_(23,_22)
nodepairs_(23,_23)
nodepairs_(23,_24)
nodepairs_(23,_25)
nodepairs_(23,_26)
nodepairs_(23,_27)
nodepairs_(23,_28)
nodepairs_(23,_29)
nodepairs_(23,_3)
nodepairs_(23,_30)
nodepairs_(23,_31)
nodepairs_(23,_32)
nodepairs_(23,_33)
nodepairs_(23,_34)
nodepairs_(23,_35)
nodepairs_(23,_36)
nodepairs_(23,_37)
nodepairs_(23,_38)
nodepairs_(23,_39)
nodepairs_(23,_40)
nodepairs_(23,_42)
nodepairs_(23,_44)
nodepairs_(23,_45)
nodepairs_(23,_46)
nodepairs_(23,_47)
nodepairs_(23,_48)
nodepairs_(23,_49)
nodepairs_(23,_5)
nodepairs_(23,_50)
nodepairs_(23,_51)
nodepairs_(23,_52)
nodepairs_(23,_53)
nodepairs_(23,_54)
nodepairs_(23,_6)
nodepairs_(23,_7)
nodepairs_(23,_8)
nodepairs_(23,_9)
nodepairs_(24,_0)
nodepairs_(24,_1)
nodepairs_(24,_10)
nodepairs_(24,_11)
nodepairs_(24,_12)
nodepairs_(24,_13)
nodepairs_(24,_14)
nodepairs_(24,_15)
nodepairs_(24,_16)
nodepairs_(24,_17)
nodepairs_(24,_19)
nodepairs_(24,_21)
nodepairs_(24,_22)
nodepairs_(24,_23)
nodepairs_(24,_24)
nodepairs_(24,_25)
nodepairs_(24,_26)
nodepairs_(24,_27)
nodepairs_(24,_28)
nodepairs_(24,_29)
nodepairs_(24,_3)
nodepairs_(24,_30)
nodepairs_(24,_31)
nodepairs_(24,_32)
nodepairs_(24,_33)
nodepairs_(24,_34)
nodepairs_(24,_35)
nodepairs_(24,_36)
nodepairs_(24,_37)
nodepairs_(24,_38)
nodepairs_(24,_39)
nodepairs_(24,_40)
nodepairs_(24,_42)
nodepairs_(24,_44)
nodepairs_(24,_45)
nodepairs_(24,_46)
nodepairs_(24,_47)
nodepairs_(24,_48)
nodepairs_(24,_49)
nodepairs_(24,_5)
nodepairs_(24,_50)
nodepairs_(24,_51)
nodepairs_(24,_52)
nodepairs_(24,_53)
nodepairs_(24,_54)
nodepairs_(24,_6)
nodepairs_(24,_7)
nodepairs_(24,_8)
nodepairs_(24,_9)
nodepairs_(25,_0)
nodepairs_(25,_1)
nodepairs_(25,_10)
nodepairs_(25,_11)
nodepairs_(25,_12)
nodepairs_(25,_13)
nodepairs_(25,_14)
nodepairs_(25,_15)
nodepairs_(25,_16)
nodepairs_(25,_17)
nodepairs_(25,_19)
nodepairs_(25,_21)
nodepairs_(25,_22)
nodepairs_(25,_23)
nodepairs_(25,_24)
nodepairs_(25,_25)
nodepairs_(25,_26)
nodepairs_(25,_27)
nodepairs_(25,_28)
nodepairs_(25,_29)
nodepairs_(25,_3)
nodepairs_(25,_30)
nodepairs_(25,_31)
nodepairs_(25,_32)
nodepairs_(25,_33)
nodepairs_(25,_34)
nodepairs_(25,_35)
nodepairs_(25,_36)
nodepairs_(25,_37)
nodepairs_(25,_38)
nodepairs_(25,_39)
nodepairs_(25,_40)
nodepairs_(25,_42)
nodepairs_(25,_44)
nodepairs_(25,_45)
nodepairs_(25,_46)
nodepairs_(25,_47)
nodepairs_(25,_48)
nodepairs_(25,_49)
nodepairs_(25,_5)
nodepairs_(25,_50)
nodepairs_(25,_51)
nodepairs_(25,_52)
nodepairs_(25,_53)
nodepairs_(25,_54)
nodepairs_(25,_6)
nodepairs_(25,_7)
nodepairs_(25,_8)
nodepairs_(25,_9)
nodepairs_(26,_0)
nodepairs_(26,_1)
nodepairs_(26,_10)
nodepairs_(26,_11)
nodepairs_(26,_12)
nodepairs_(26,_13)
nodepairs_(26,_14)
nodepairs_(26,_15)
nodepairs_(26,_16)
nodepairs_(26,_17)
nodepairs_(26,_19)
nodepairs_(26,_21)
nodepairs_(26,_22)
nodepairs_(26,_23)
nodepairs_(26,_24)
nodepairs_(26,_25)
nodepairs_(26,_26)
nodepairs_(26,_27)
nodepairs_(26,_28)
nodepairs_(26,_29)
nodepairs_(26,_3)
nodepairs_(26,_30)
nodepairs_(26,_31)
nodepairs_(26,_32)
nodepairs_(26,_33)
nodepairs_(26,_34)
nodepairs_(26,_35)
nodepairs_(26,_36)
nodepairs_(26,_37)
nodepairs_(26,_38)
nodepairs_(26,_39)
nodepairs_(26,_40)
nodepairs_(26,_42)
nodepairs_(26,_44)
nodepairs_(26,_45)
nodepairs_(26,_46)
nodepairs_(26,_47)
nodepairs_(26,_48)
nodepairs_(26,_49)
nodepairs_(26,_5)
nodepairs_(26,_50)
nodepairs_(26,_51)
nodepairs_(26,_52)
nodepairs_(26,_53)
nodepairs_(26,_54)
nodepairs_(26,_6)
nodepairs_(26,_7)
nodepairs_(26,_8)
nodepairs_(26,_9)
nodepairs_(27,_18)
nodepairs_(27,_2)
nodepairs_(27,_20)
nodepairs_(27,_4)
nodepairs_(27,_41)
nodepairs_(27,_43)
nodepairs_(28,_0)
nodepairs_(28,_1)
nodepairs_(28,_10)
nodepairs_(28,_11)
nodepairs_(28,_12)
nodepairs_(28,_13)
nodepairs_(28,_14)
nodepairs_(28,_15)
nodepairs_(28,_16)
nodepairs_(28,_17)
nodepairs_(28,_19)
nodepairs_(28,_21)
nodepairs_(28,_22)
nodepairs_(28,_23)
nodepairs_(28,_24)
nodepairs_(28,_25)
nodepairs_(28,_26)
nodepairs_(28,_27)
nodepairs_(28,_28)
nodepairs_(28,_29)
nodepairs_(28,_3)
nodepairs_(28,_30)
nodepairs_(28,_31)
nodepairs_(28,_32)
nodepairs_(28,_33)
nodepairs_(28,_34)
nodepairs_(28,_35)
nodepairs_(28,_36)
nodepairs_(28,_37)
nodepairs_(28,_38)
nodepairs_(28,_39)
nodepairs_(28,_40)
nodepairs_(28,_42)
nodepairs_(28,_44)
nodepairs_(28,_45)
nodepairs_(28,_46)
nodepairs_(28,_47)
nodepairs_(28,_48)
nodepairs_(28,_49)
nodepairs_(28,_5)
nodepairs_(28,_50)
nodepairs_(28,_51)
nodepairs_(28,_52)
nodepairs_(28,_53)
nodepairs_(28,_54)
nodepairs_(28,_6)
nodepairs_(28,_7)
nodepairs_(28,_8)
nodepairs_(28,_9)
nodepairs_(29,_18)
nodepairs_(29,_2)
nodepairs_(29,_20)
nodepairs_(29,_4)
nodepairs_(29,_41)
nodepairs_(29,_43)
nodepairs_(3,_0)
nodepairs_(3,_1)
nodepairs_(3,_10)
nodepairs_(3,_11)
nodepairs_(3,_12)
nodepairs_(3,_13)
nodepairs_(3,_14)
nodepairs_(3,_15)
nodepairs_(3,_16)
nodepairs_(3,_17)
nodepairs_(3,_19)
nodepairs_(3,_21)
nodepairs_(3,_22)
nodepairs_(3,_23)
nodepairs_(3,_24)
nodepairs_(3,_25)
nodepairs_(3,_26)
nodepairs_(3,_27)
nodepairs_(3,_28)
nodepairs_(3,_29)
nodepairs_(3,_3)
nodepairs_(3,_30)
nodepairs_(3,_31)
nodepairs_(3,_32)
nodepairs_(3,_33)
nodepairs_(3,_34)
nodepairs_(3,_35)
nodepairs_(3,_36)
nodepairs_(3,_37)
nodepairs_(3,_38)
nodepairs_(3,_39)
nodepairs_(3,_40)
nodepairs_(3,_42)
nodepairs_(3,_44)
nodepairs_(3,_45)
nodepairs_(3,_46)
nodepairs_(3,_47)
nodepairs_(3,_48)
nodepairs_(3,_49)
nodepairs_(3,_5)
nodepairs_(3,_50)
nodepairs_(3,_51)
nodepairs_(3,_52)
nodepairs_(3,_53)
nodepairs_(3,_54)
nodepairs_(3,_6)
nodepairs_(3,_7)
nodepairs_(3,_8)
nodepairs_(3,_9)
nodepairs_(30,_0)
nodepairs_(30,_1)
nodepairs_(30,_10)
nodepairs_(30,_11)
nodepairs_(30,_12)
nodepairs_(30,_13)
nodepairs_(30,_14)
nodepairs_(30,_15)
nodepairs_(30,_16)
nodepairs_(30,_17)
nodepairs_(30,_19)
nodepairs_(30,_21)
nodepairs_(30,_22)
nodepairs_(30,_23)
nodepairs_(30,_24)
nodepairs_(30,_25)
nodepairs_(30,_26)
nodepairs_(30,_27)
nodepairs_(30,_28)
nodepairs_(30,_29)
nodepairs_(30,_3)
nodepairs_(30,_30)
nodepairs_(30,_31)
nodepairs_(30,_32)
nodepairs_(30,_33)
nodepairs_(30,_34)
nodepairs_(30,_35)
nodepairs_(30,_36)
nodepairs_(30,_37)
nodepairs_(30,_38)
nodepairs_(30,_39)
nodepairs_(30,_40)
nodepairs_(30,_42)
nodepairs_(30,_44)
nodepairs_(30,_45)
nodepairs_(30,_46)
nodepairs_(30,_47)
nodepairs_(30,_48)
nodepairs_(30,_49)
nodepairs_(30,_5)
nodepairs_(30,_50)
nodepairs_(30,_51)
nodepairs_(30,_52)
nodepairs_(30,_53)
nodepairs_(30,_54)
nodepairs_(30,_6)
nodepairs_(30,_7)
nodepairs_(30,_8)
nodepairs_(30,_9)
nodepairs_(31,_0)
nodepairs_(31,_1)
nodepairs_(31,_10)
nodepairs_(31,_11)
nodepairs_(31,_12)
nodepairs_(31,_13)
nodepairs_(31,_14)
nodepairs_(31,_15)
nodepairs_(31,_16)
nodepairs_(31,_17)
nodepairs_(31,_19)
nodepairs_(31,_21)
nodepairs_(31,_22)
nodepairs_(31,_23)
nodepairs_(31,_24)
nodepairs_(31,_25)
nodepairs_(31,_26)
nodepairs_(31,_27)
nodepairs_(31,_28)
nodepairs_(31,_29)
nodepairs_(31,_3)
nodepairs_(31,_30)
nodepairs_(31,_31)
nodepairs_(31,_32)
nodepairs_(31,_33)
nodepairs_(31,_34)
nodepairs_(31,_35)
nodepairs_(31,_36)
nodepairs_(31,_37)
nodepairs_(31,_38)
nodepairs_(31,_39)
nodepairs_(31,_40)
nodepairs_(31,_42)
nodepairs_(31,_44)
nodepairs_(31,_45)
nodepairs_(31,_46)
nodepairs_(31,_47)
nodepairs_(31,_48)
nodepairs_(31,_49)
nodepairs_(31,_5)
nodepairs_(31,_50)
nodepairs_(31,_51)
nodepairs_(31,_52)
nodepairs_(31,_53)
nodepairs_(31,_54)
nodepairs_(31,_6)
nodepairs_(31,_7)
nodepairs_(31,_8)
nodepairs_(31,_9)
nodepairs_(32,_0)
nodepairs_(32,_1)
nodepairs_(32,_10)
nodepairs_(32,_11)
nodepairs_(32,_12)
nodepairs_(32,_13)
nodepairs_(32,_14)
nodepairs_(32,_15)
nodepairs_(32,_16)
nodepairs_(32,_17)
nodepairs_(32,_19)
nodepairs_(32,_21)
nodepairs_(32,_22)
nodepairs_(32,_23)
nodepairs_(32,_24)
nodepairs_(32,_25)
nodepairs_(32,_26)
nodepairs_(32,_27)
nodepairs_(32,_28)
nodepairs_(32,_29)
nodepairs_(32,_3)
nodepairs_(32,_30)
nodepairs_(32,_31)
nodepairs_(32,_32)
nodepairs_(32,_33)
nodepairs_(32,_34)
nodepairs_(32,_35)
nodepairs_(32,_36)
nodepairs_(32,_37)
nodepairs_(32,_38)
nodepairs_(32,_39)
nodepairs_(32,_40)
nodepairs_(32,_42)
nodepairs_(32,_44)
nodepairs_(32,_45)
nodepairs_(32,_46)
nodepairs_(32,_47)
nodepairs_(32,_48)
nodepairs_(32,_49)
nodepairs_(32,_5)
nodepairs_(32,_50)
nodepairs_(32,_51)
nodepairs_(32,_52)
nodepairs_(32,_53)
nodepairs_(32,_54)
nodepairs_(32,_6)
nodepairs_(32,_7)
nodepairs_(32,_8)
nodepairs_(32,_9)
nodepairs_(33,_0)
nodepairs_(33,_1)
nodepairs_(33,_10)
nodepairs_(33,_11)
nodepairs_(33,_12)
nodepairs_(33,_13)
nodepairs_(33,_14)
nodepairs_(33,_15)
nodepairs_(33,_16)
nodepairs_(33,_17)
nodepairs_(33,_19)
nodepairs_(33,_21)
nodepairs_(33,_22)
nodepairs_(33,_23)
nodepairs_(33,_24)
nodepairs_(33,_25)
nodepairs_(33,_26)
nodepairs_(33,_27)
nodepairs_(33,_28)
nodepairs_(33,_29)
nodepairs_(33,_3)
nodepairs_(33,_30)
nodepairs_(33,_31)
nodepairs_(33,_32)
nodepairs_(33,_33)
nodepairs_(33,_34)
nodepairs_(33,_35)
nodepairs_(33,_36)
nodepairs_(33,_37)
nodepairs_(33,_38)
nodepairs_(33,_39)
nodepairs_(33,_40)
nodepairs_(33,_42)
nodepairs_(33,_44)
nodepairs_(33,_45)
nodepairs_(33,_46)
nodepairs_(33,_47)
nodepairs_(33,_48)
nodepairs_(33,_49)
nodepairs_(33,_5)
nodepairs_(33,_50)
nodepairs_(33,_51)
nodepairs_(33,_52)
nodepairs_(33,_53)
nodepairs_(33,_54)
nodepairs_(33,_6)
nodepairs_(33,_7)
nodepairs_(33,_8)
nodepairs_(33,_9)
nodepairs_(34,_0)
nodepairs_(34,_1)
nodepairs_(34,_10)
nodepairs_(34,_11)
nodepairs_(34,_12)
nodepairs_(34,_13)
nodepairs_(34,_14)
nodepairs_(34,_15)
nodepairs_(34,_16)
nodepairs_(34,_17)
nodepairs_(34,_19)
nodepairs_(34,_21)
nodepairs_(34,_22)
nodepairs_(34,_23)
nodepairs_(34,_24)
nodepairs_(34,_25)
nodepairs_(34,_26)
nodepairs_(34,_27)
nodepairs_(34,_28)
nodepairs_(34,_29)
nodepairs_(34,_3)
nodepairs_(34,_30)
nodepairs_(34,_31)
nodepairs_(34,_32)
nodepairs_(34,_33)
nodepairs_(34,_34)
nodepairs_(34,_35)
nodepairs_(34,_36)
nodepairs_(34,_37)
nodepairs_(34,_38)
nodepairs_(34,_39)
nodepairs_(34,_40)
nodepairs_(34,_42)
nodepairs_(34,_44)
nodepairs_(34,_45)
nodepairs_(34,_46)
nodepairs_(34,_47)
nodepairs_(34,_48)
nodepairs_(34,_49)
nodepairs_(34,_5)
nodepairs_(34,_50)
nodepairs_(34,_51)
nodepairs_(34,_52)
nodepairs_(34,_53)
nodepairs_(34,_54)
nodepairs_(34,_6)
nodepairs_(34,_7)
nodepairs_(34,_8)
nodepairs_(34,_9)
nodepairs_(35,_0)
nodepairs_(35,_1)
nodepairs_(35,_10)
nodepairs_(35,_11)
nodepairs_(35,_12)
nodepairs_(35,_13)
nodepairs_(35,_14)
nodepairs_(35,_15)
nodepairs_(35,_16)
nodepairs_(35,_17)
nodepairs_(35,_19)
nodepairs_(35,_21)
nodepairs_(35,_22)
nodepairs_(35,_23)
nodepairs_(35,_24)
nodepairs_(35,_25)
nodepairs_(35,_26)
nodepairs_(35,_27)
nodepairs_(35,_28)
nodepairs_(35,_29)
nodepairs_(35,_3)
nodepairs_(35,_30)
nodepairs_(35,_31)
nodepairs_(35,_32)
nodepairs_(35,_33)
nodepairs_(35,_34)
nodepairs_(35,_35)
nodepairs_(35,_36)
nodepairs_(35,_37)
nodepairs_(35,_38)
nodepairs_(35,_39)
nodepairs_(35,_40)
nodepairs_(35,_42)
nodepairs_(35,_44)
nodepairs_(35,_45)
nodepairs_(35,_46)
nodepairs_(35,_47)
nodepairs_(35,_48)
nodepairs_(35,_49)
nodepairs_(35,_5)
nodepairs_(35,_50)
nodepairs_(35,_51)
nodepairs_(35,_52)
nodepairs_(35,_53)
nodepairs_(35,_54)
nodepairs_(35,_6)
nodepairs_(35,_7)
nodepairs_(35,_8)
nodepairs_(35,_9)
nodepairs_(36,_0)
nodepairs_(36,_1)
nodepairs_(36,_10)
nodepairs_(36,_11)
nodepairs_(36,_12)
nodepairs_(36,_13)
nodepairs_(36,_14)
nodepairs_(36,_15)
nodepairs_(36,_16)
nodepairs_(36,_17)
nodepairs_(36,_19)
nodepairs_(36,_21)
nodepairs_(36,_22)
nodepairs_(36,_23)
nodepairs_(36,_24)
nodepairs_(36,_25)
nodepairs_(36,_26)
nodepairs_(36,_27)
nodepairs_(36,_28)
nodepairs_(36,_29)
nodepairs_(36,_3)
nodepairs_(36,_30)
nodepairs_(36,_31)
nodepairs_(36,_32)
nodepairs_(36,_33)
nodepairs_(36,_34)
nodepairs_(36,_35)
nodepairs_(36,_36)
nodepairs_(36,_37)
nodepairs_(36,_38)
nodepairs_(36,_39)
nodepairs_(36,_40)
nodepairs_(36,_42)
nodepairs_(36,_44)
nodepairs_(36,_45)
nodepairs_(36,_46)
nodepairs_(36,_47)
nodepairs_(36,_48)
nodepairs_(36,_49)
nodepairs_(36,_5)
nodepairs_(36,_50)
nodepairs_(36,_51)
nodepairs_(36,_52)
nodepairs_(36,_53)
nodepairs_(36,_54)
nodepairs_(36,_6)
nodepairs_(36,_7)
nodepairs_(36,_8)
nodepairs_(36,_9)
nodepairs_(37,_0)
nodepairs_(37,_1)
nodepairs_(37,_10)
nodepairs_(37,_11)
nodepairs_(37,_12)
nodepairs_(37,_13)
nodepairs_(37,_14)
nodepairs_(37,_15)
nodepairs_(37,_16)
nodepairs_(37,_17)
nodepairs_(37,_19)
nodepairs_(37,_21)
nodepairs_(37,_22)
nodepairs_(37,_23)
nodepairs_(37,_24)
nodepairs_(37,_25)
nodepairs_(37,_26)
nodepairs_(37,_27)
nodepairs_(37,_28)
nodepairs_(37,_29)
nodepairs_(37,_3)
nodepairs_(37,_30)
nodepairs_(37,_31)
nodepairs_(37,_32)
nodepairs_(37,_33)
nodepairs_(37,_34)
nodepairs_(37,_35)
nodepairs_(37,_36)
nodepairs_(37,_37)
nodepairs_(37,_38)
nodepairs_(37,_39)
nodepairs_(37,_40)
nodepairs_(37,_42)
nodepairs_(37,_44)
nodepairs_(37,_45)
nodepairs_(37,_46)
nodepairs_(37,_47)
nodepairs_(37,_48)
nodepairs_(37,_49)
nodepairs_(37,_5)
nodepairs_(37,_50)
nodepairs_(37,_51)
nodepairs_(37,_52)
nodepairs_(37,_53)
nodepairs_(37,_54)
nodepairs_(37,_6)
nodepairs_(37,_7)
nodepairs_(37,_8)
nodepairs_(37,_9)
nodepairs_(38,_0)
nodepairs_(38,_1)
nodepairs_(38,_10)
nodepairs_(38,_11)
nodepairs_(38,_12)
nodepairs_(38,_13)
nodepairs_(38,_14)
nodepairs_(38,_15)
nodepairs_(38,_16)
nodepairs_(38,_17)
nodepairs_(38,_19)
nodepairs_(38,_21)
nodepairs_(38,_22)
nodepairs_(38,_23)
nodepairs_(38,_24)
nodepairs_(38,_25)
nodepairs_(38,_26)
nodepairs_(38,_27)
nodepairs_(38,_28)
nodepairs_(38,_29)
nodepairs_(38,_3)
nodepairs_(38,_30)
nodepairs_(38,_31)
nodepairs_(38,_32)
nodepairs_(38,_33)
nodepairs_(38,_34)
nodepairs_(38,_35)
nodepairs_(38,_36)
nodepairs_(38,_37)
nodepairs_(38,_38)
nodepairs_(38,_39)
nodepairs_(38,_40)
nodepairs_(38,_42)
nodepairs_(38,_44)
nodepairs_(38,_45)
nodepairs_(38,_46)
nodepairs_(38,_47)
nodepairs_(38,_48)
nodepairs_(38,_49)
nodepairs_(38,_5)
nodepairs_(38,_50)
nodepairs_(38,_51)
nodepairs_(38,_52)
nodepairs_(38,_53)
nodepairs_(38,_54)
nodepairs_(38,_6)
nodepairs_(38,_7)
nodepairs_(38,_8)
nodepairs_(38,_9)
nodepairs_(39,_0)
nodepairs_(39,_1)
nodepairs_(39,_10)
nodepairs_(39,_11)
nodepairs_(39,_12)
nodepairs_(39,_13)
nodepairs_(39,_14)
nodepairs_(39,_15)
nodepairs_(39,_16)
nodepairs_(39,_17)
nodepairs_(39,_19)
nodepairs_(39,_21)
nodepairs_(39,_22)
nodepairs_(39,_23)
nodepairs_(39,_24)
nodepairs_(39,_25)
nodepairs_(39,_26)
nodepairs_(39,_27)
nodepairs_(39,_28)
nodepairs_(39,_29)
nodepairs_(39,_3)
nodepairs_(39,_30)
nodepairs_(39,_31)
nodepairs_(39,_32)
nodepairs_(39,_33)
nodepairs_(39,_34)
nodepairs_(39,_35)
nodepairs_(39,_36)
nodepairs_(39,_37)
nodepairs_(39,_38)
nodepairs_(39,_39)
nodepairs_(39,_40)
nodepairs_(39,_42)
nodepairs_(39,_44)
nodepairs_(39,_45)
nodepairs_(39,_46)
nodepairs_(39,_47)
nodepairs_(39,_48)
nodepairs_(39,_49)
nodepairs_(39,_5)
nodepairs_(39,_50)
nodepairs_(39,_51)
nodepairs_(39,_52)
nodepairs_(39,_53)
nodepairs_(39,_54)
nodepairs_(39,_6)
nodepairs_(39,_7)
nodepairs_(39,_8)
nodepairs_(39,_9)
nodepairs_(4,_18)
nodepairs_(4,_2)
nodepairs_(4,_20)
nodepairs_(4,_4)
nodepairs_(4,_41)
nodepairs_(4,_43)
nodepairs_(40,_0)
nodepairs_(40,_1)
nodepairs_(40,_10)
nodepairs_(40,_11)
nodepairs_(40,_12)
nodepairs_(40,_13)
nodepairs_(40,_14)
nodepairs_(40,_15)
nodepairs_(40,_16)
nodepairs_(40,_17)
nodepairs_(40,_19)
nodepairs_(40,_21)
nodepairs_(40,_22)
nodepairs_(40,_23)
nodepairs_(40,_24)
nodepairs_(40,_25)
nodepairs_(40,_26)
nodepairs_(40,_27)
nodepairs_(40,_28)
nodepairs_(40,_29)
nodepairs_(40,_3)
nodepairs_(40,_30)
nodepairs_(40,_31)
nodepairs_(40,_32)
nodepairs_(40,_33)
nodepairs_(40,_34)
nodepairs_(40,_35)
nodepairs_(40,_36)
nodepairs_(40,_37)
nodepairs_(40,_38)
nodepairs_(40,_39)
nodepairs_(40,_40)
nodepairs_(40,_42)
nodepairs_(40,_44)
nodepairs_(40,_45)
nodepairs_(40,_46)
nodepairs_(40,_47)
nodepairs_(40,_48)
nodepairs_(40,_49)
nodepairs_(40,_5)
nodepairs_(40,_50)
nodepairs_(40,_51)
nodepairs_(40,_52)
nodepairs_(40,_53)
nodepairs_(40,_54)
nodepairs_(40,_6)
nodepairs_(40,_7)
nodepairs_(40,_8)
nodepairs_(40,_9)
nodepairs_(41,_0)
nodepairs_(41,_1)
nodepairs_(41,_10)
nodepairs_(41,_11)
nodepairs_(41,_12)
nodepairs_(41,_13)
nodepairs_(41,_14)
nodepairs_(41,_15)
nodepairs_(41,_16)
nodepairs_(41,_17)
nodepairs_(41,_19)
nodepairs_(41,_21)
nodepairs_(41,_22)
nodepairs_(41,_23)
nodepairs_(41,_24)
nodepairs_(41,_25)
nodepairs_(41,_26)
nodepairs_(41,_27)
nodepairs_(41,_28)
nodepairs_(41,_29)
nodepairs_(41,_3)
nodepairs_(41,_30)
nodepairs_(41,_31)
nodepairs_(41,_32)
nodepairs_(41,_33)
nodepairs_(41,_34)
nodepairs_(41,_35)
nodepairs_(41,_36)
nodepairs_(41,_37)
nodepairs_(41,_38)
nodepairs_(41,_39)
nodepairs_(41,_40)
nodepairs_(41,_42)
nodepairs_(41,_44)
nodepairs_(41,_45)
nodepairs_(41,_46)
nodepairs_(41,_47)
nodepairs_(41,_48)
nodepairs_(41,_49)
nodepairs_(41,_5)
nodepairs_(41,_50)
nodepairs_(41,_51)
nodepairs_(41,_52)
nodepairs_(41,_53)
nodepairs_(41,_54)
nodepairs_(41,_6)
nodepairs_(41,_7)
nodepairs_(41,_8)
nodepairs_(41,_9)
nodepairs_(42,_0)
nodepairs_(42,_1)
nodepairs_(42,_10)
nodepairs_(42,_11)
nodepairs_(42,_12)
nodepairs_(42,_13)
nodepairs_(42,_14)
nodepairs_(42,_15)
nodepairs_(42,_16)
nodepairs_(42,_17)
nodepairs_(42,_19)
nodepairs_(42,_21)
nodepairs_(42,_22)
nodepairs_(42,_23)
nodepairs_(42,_24)
nodepairs_(42,_25)
nodepairs_(42,_26)
nodepairs_(42,_27)
nodepairs_(42,_28)
nodepairs_(42,_29)
nodepairs_(42,_3)
nodepairs_(42,_30)
nodepairs_(42,_31)
nodepairs_(42,_32)
nodepairs_(42,_33)
nodepairs_(42,_34)
nodepairs_(42,_35)
nodepairs_(42,_36)
nodepairs_(42,_37)
nodepairs_(42,_38)
nodepairs_(42,_39)
nodepairs_(42,_40)
nodepairs_(42,_42)
nodepairs_(42,_44)
nodepairs_(42,_45)
nodepairs_(42,_46)
nodepairs_(42,_47)
nodepairs_(42,_48)
nodepairs_(42,_49)
nodepairs_(42,_5)
nodepairs_(42,_50)
nodepairs_(42,_51)
nodepairs_(42,_52)
nodepairs_(42,_53)
nodepairs_(42,_54)
nodepairs_(42,_6)
nodepairs_(42,_7)
nodepairs_(42,_8)
nodepairs_(42,_9)
nodepairs_(43,_18)
nodepairs_(43,_2)
nodepairs_(43,_20)
nodepairs_(43,_4)
nodepairs_(43,_41)
nodepairs_(43,_43)
nodepairs_(44,_0)
nodepairs_(44,_1)
nodepairs_(44,_10)
nodepairs_(44,_11)
nodepairs_(44,_12)
nodepairs_(44,_13)
nodepairs_(44,_14)
nodepairs_(44,_15)
nodepairs_(44,_16)
nodepairs_(44,_17)
nodepairs_(44,_19)
nodepairs_(44,_21)
nodepairs_(44,_22)
nodepairs_(44,_23)
nodepairs_(44,_24)
nodepairs_(44,_25)
nodepairs_(44,_26)
nodepairs_(44,_27)
nodepairs_(44,_28)
nodepairs_(44,_29)
nodepairs_(44,_3)
nodepairs_(44,_30)
nodepairs_(44,_31)
nodepairs_(44,_32)
nodepairs_(44,_33)
nodepairs_(44,_34)
nodepairs_(44,_35)
nodepairs_(44,_36)
nodepairs_(44,_37)
nodepairs_(44,_38)
nodepairs_(44,_39)
nodepairs_(44,_40)
nodepairs_(44,_42)
nodepairs_(44,_44)
nodepairs_(44,_45)
nodepairs_(44,_46)
nodepairs_(44,_47)
nodepairs_(44,_48)
nodepairs_(44,_49)
nodepairs_(44,_5)
nodepairs_(44,_50)
nodepairs_(44,_51)
nodepairs_(44,_52)
nodepairs_(44,_53)
nodepairs_(44,_54)
nodepairs_(44,_6)
nodepairs_(44,_7)
nodepairs_(44,_8)
nodepairs_(44,_9)
nodepairs_(45,_18)
nodepairs_(45,_2)
nodepairs_(45,_20)
nodepairs_(45,_4)
nodepairs_(45,_41)
nodepairs_(45,_43)
nodepairs_(46,_0)
nodepairs_(46,_1)
nodepairs_(46,_10)
nodepairs_(46,_11)
nodepairs_(46,_12)
nodepairs_(46,_13)
nodepairs_(46,_14)
nodepairs_(46,_15)
nodepairs_(46,_16)
nodepairs_(46,_17)
nodepairs_(46,_19)
nodepairs_(46,_21)
nodepairs_(46,_22)
nodepairs_(46,_23)
nodepairs_(46,_24)
nodepairs_(46,_25)
nodepairs_(46,_26)
nodepairs_(46,_27)
nodepairs_(46,_28)
nodepairs_(46,_29)
nodepairs_(46,_3)
nodepairs_(46,_30)
nodepairs_(46,_31)
nodepairs_(46,_32)
nodepairs_(46,_33)
nodepairs_(46,_34)
nodepairs_(46,_35)
nodepairs_(46,_36)
nodepairs_(46,_37)
nodepairs_(46,_38)
nodepairs_(46,_39)
nodepairs_(46,_40)
nodepairs_(46,_42)
nodepairs_(46,_44)
nodepairs_(46,_45)
nodepairs_(46,_46)
nodepairs_(46,_47)
nodepairs_(46,_48)
nodepairs_(46,_49)
nodepairs_(46,_5)
nodepairs_(46,_50)
nodepairs_(46,_51)
nodepairs_(46,_52)
nodepairs_(46,_53)
nodepairs_(46,_54)
nodepairs_(46,_6)
nodepairs_(46,_7)
nodepairs_(46,_8)
nodepairs_(46,_9)
nodepairs_(47,_0)
nodepairs_(47,_1)
nodepairs_(47,_10)
nodepairs_(47,_11)
nodepairs_(47,_12)
nodepairs_(47,_13)
nodepairs_(47,_14)
nodepairs_(47,_15)
nodepairs_(47,_16)
nodepairs_(47,_17)
nodepairs_(47,_19)
nodepairs_(47,_21)
nodepairs_(47,_22)
nodepairs_(47,_23)
nodepairs_(47,_24)
nodepairs_(47,_25)
nodepairs_(47,_26)
nodepairs_(47,_27)
nodepairs_(47,_28)
nodepairs_(47,_29)
nodepairs_(47,_3)
nodepairs_(47,_30)
nodepairs_(47,_31)
nodepairs_(47,_32)
nodepairs_(47,_33)
nodepairs_(47,_34)
nodepairs_(47,_35)
nodepairs_(47,_36)
nodepairs_(47,_37)
nodepairs_(47,_38)
nodepairs_(47,_39)
nodepairs_(47,_40)
nodepairs_(47,_42)
nodepairs_(47,_44)
nodepairs_(47,_45)
nodepairs_(47,_46)
nodepairs_(47,_47)
nodepairs_(47,_48)
nodepairs_(47,_49)
nodepairs_(47,_5)
nodepairs_(47,_50)
nodepairs_(47,_51)
nodepairs_(47,_52)
nodepairs_(47,_53)
nodepairs_(47,_54)
nodepairs_(47,_6)
nodepairs_(47,_7)
nodepairs_(47,_8)
nodepairs_(47,_9)
nodepairs_(48,_0)
nodepairs_(48,_1)
nodepairs_(48,_10)
nodepairs_(48,_11)
nodepairs_(48,_12)
nodepairs_(48,_13)
nodepairs_(48,_14)
nodepairs_(48,_15)
nodepairs_(48,_16)
nodepairs_(48,_17)
nodepairs_(48,_19)
nodepairs_(48,_21)
nodepairs_(48,_22)
nodepairs_(48,_23)
nodepairs_(48,_24)
nodepairs_(48,_25)
nodepairs_(48,_26)
nodepairs_(48,_27)
nodepairs_(48,_28)
nodepairs_(48,_29)
nodepairs_(48,_3)
nodepairs_(48,_30)
nodepairs_(48,_31)
nodepairs_(48,_32)
nodepairs_(48,_33)
nodepairs_(48,_34)
nodepairs_(48,_35)
nodepairs_(48,_36)
nodepairs_(48,_37)
nodepairs_(48,_38)
nodepairs_(48,_39)
nodepairs_(48,_40)
nodepairs_(48,_42)
nodepairs_(48,_44)
nodepairs_(48,_45)
nodepairs_(48,_46)
nodepairs_(48,_47)
nodepairs_(48,_48)
nodepairs_(48,_49)
nodepairs_(48,_5)
nodepairs_(48,_50)
nodepairs_(48,_51)
nodepairs_(48,_52)
nodepairs_(48,_53)
nodepairs_(48,_54)
nodepairs_(48,_6)
nodepairs_(48,_7)
nodepairs_(48,_8)
nodepairs_(48,_9)
nodepairs_(49,_0)
nodepairs_(49,_1)
nodepairs_(49,_10)
nodepairs_(49,_11)
nodepairs_(49,_12)
nodepairs_(49,_13)
nodepairs_(49,_14)
nodepairs_(49,_15)
nodepairs_(49,_16)
nodepairs_(49,_17)
nodepairs_(49,_19)
nodepairs_(49,_21)
nodepairs_(49,_22)
nodepairs_(49,_23)
nodepairs_(49,_24)
nodepairs_(49,_25)
nodepairs_(49,_26)
nodepairs_(49,_27)
nodepairs_(49,_28)
nodepairs_(49,_29)
nodepairs_(49,_3)
nodepairs_(49,_30)
nodepairs_(49,_31)
nodepairs_(49,_32)
nodepairs_(49,_33)
nodepairs_(49,_34)
nodepairs_(49,_35)
nodepairs_(49,_36)
nodepairs_(49,_37)
nodepairs_(49,_38)
nodepairs_(49,_39)
nodepairs_(49,_40)
nodepairs_(49,_42)
nodepairs_(49,_44)
nodepairs_(49,_45)
nodepairs_(49,_46)
nodepairs_(49,_47)
nodepairs_(49,_48)
nodepairs_(49,_49)
nodepairs_(49,_5)
nodepairs_(49,_50)
nodepairs_(49,_51)
nodepairs_(49,_52)
nodepairs_(49,_53)
nodepairs_(49,_54)
nodepairs_(49,_6)
nodepairs_(49,_7)
nodepairs_(49,_8)
nodepairs_(49,_9)
nodepairs_(5,_0)
nodepairs_(5,_1)
nodepairs_(5,_10)
nodepairs_(5,_11)
nodepairs_(5,_12)
nodepairs_(5,_13)
nodepairs_(5,_14)
nodepairs_(5,_15)
nodepairs_(5,_16)
nodepairs_(5,_17)
nodepairs_(5,_19)
nodepairs_(5,_21)
nodepairs_(5,_22)
nodepairs_(5,_23)
nodepairs_(5,_24)
nodepairs_(5,_25)
nodepairs_(5,_26)
nodepairs_(5,_27)
nodepairs_(5,_28)
nodepairs_(5,_29)
nodepairs_(5,_3)
nodepairs_(5,_30)
nodepairs_(5,_31)
nodepairs_(5,_32)
nodepairs_(5,_33)
nodepairs_(5,_34)
nodepairs_(5,_35)
nodepairs_(5,_36)
nodepairs_(5,_37)
nodepairs_(5,_38)
nodepairs_(5,_39)
nodepairs_(5,_40)
nodepairs_(5,_42)
nodepairs_(5,_44)
nodepairs_(5,_45)
nodepairs_(5,_46)
nodepairs_(5,_47)
nodepairs_(5,_48)
nodepairs_(5,_49)
nodepairs_(5,_5)
nodepairs_(5,_50)
nodepairs_(5,_51)
nodepairs_(5,_52)
nodepairs_(5,_53)
nodepairs_(5,_54)
nodepairs_(5,_6)
nodepairs_(5,_7)
nodepairs_(5,_8)
nodepairs_(5,_9)
nodepairs_(50,_0)
nodepairs_(50,_1)
nodepairs_(50,_10)
nodepairs_(50,_11)
nodepairs_(50,_12)
nodepairs_(50,_13)
nodepairs_(50,_14)
nodepairs_(50,_15)
nodepairs_(50,_16)
nodepairs_(50,_17)
nodepairs_(50,_19)
nodepairs_(50,_21)
nodepairs_(50,_22)
nodepairs_(50,_23)
nodepairs_(50,_24)
nodepairs_(50,_25)
nodepairs_(50,_26)
nodepairs_(50,_27)
nodepairs_(50,_28)
nodepairs_(50,_29)
nodepairs_(50,_3)
nodepairs_(50,_30)
nodepairs_(50,_31)
nodepairs_(50,_32)
nodepairs_(50,_33)
nodepairs_(50,_34)
nodepairs_(50,_35)
nodepairs_(50,_36)
nodepairs_(50,_37)
nodepairs_(50,_38)
nodepairs_(50,_39)
nodepairs_(50,_40)
nodepairs_(50,_42)
nodepairs_(50,_44)
nodepairs_(50,_45)
nodepairs_(50,_46)
nodepairs_(50,_47)
nodepairs_(50,_48)
nodepairs_(50,_49)
nodepairs_(50,_5)
nodepairs_(50,_50)
nodepairs_(50,_51)
nodepairs_(50,_52)
nodepairs_(50,_53)
nodepairs_(50,_54)
nodepairs_(50,_6)
nodepairs_(50,_7)
nodepairs_(50,_8)
nodepairs_(50,_9)
nodepairs_(51,_0)
nodepairs_(51,_1)
nodepairs_(51,_10)
nodepairs_(51,_11)
nodepairs_(51,_12)
nodepairs_(51,_13)
nodepairs_(51,_14)
nodepairs_(51,_15)
nodepairs_(51,_16)
nodepairs_(51,_17)
nodepairs_(51,_19)
nodepairs_(51,_21)
nodepairs_(51,_22)
nodepairs_(51,_23)
nodepairs_(51,_24)
nodepairs_(51,_25)
nodepairs_(51,_26)
nodepairs_(51,_27)
nodepairs_(51,_28)
nodepairs_(51,_29)
nodepairs_(51,_3)
nodepairs_(51,_30)
nodepairs_(51,_31)
nodepairs_(51,_32)
nodepairs_(51,_33)
nodepairs_(51,_34)
nodepairs_(51,_35)
nodepairs_(51,_36)
nodepairs_(51,_37)
nodepairs_(51,_38)
nodepairs_(51,_39)
nodepairs_(51,_40)
nodepairs_(51,_42)
nodepairs_(51,_44)
nodepairs_(51,_45)
nodepairs_(51,_46)
nodepairs_(51,_47)
nodepairs_(51,_48)
nodepairs_(51,_49)
nodepairs_(51,_5)
nodepairs_(51,_50)
nodepairs_(51,_51)
nodepairs_(51,_52)
nodepairs_(51,_53)
nodepairs_(51,_54)
nodepairs_(51,_6)
nodepairs_(51,_7)
nodepairs_(51,_8)
nodepairs_(51,_9)
nodepairs_(52,_0)
nodepairs_(52,_1)
nodepairs_(52,_10)
nodepairs_(52,_11)
nodepairs_(52,_12)
nodepairs_(52,_13)
nodepairs_(52,_14)
nodepairs_(52,_15)
nodepairs_(52,_16)
nodepairs_(52,_17)
nodepairs_(52,_19)
nodepairs_(52,_21)
nodepairs_(52,_22)
nodepairs_(52,_23)
nodepairs_(52,_24)
nodepairs_(52,_25)
nodepairs_(52,_26)
nodepairs_(52,_27)
nodepairs_(52,_28)
nodepairs_(52,_29)
nodepairs_(52,_3)
nodepairs_(52,_30)
nodepairs_(52,_31)
nodepairs_(52,_32)
nodepairs_(52,_33)
nodepairs_(52,_34)
nodepairs_(52,_35)
nodepairs_(52,_36)
nodepairs_(52,_37)
nodepairs_(52,_38)
nodepairs_(52,_39)
nodepairs_(52,_40)
nodepairs_(52,_42)
nodepairs_(52,_44)
nodepairs_(52,_45)
nodepairs_(52,_46)
nodepairs_(52,_47)
nodepairs_(52,_48)
nodepairs_(52,_49)
nodepairs_(52,_5)
nodepairs_(52,_50)
nodepairs_(52,_51)
nodepairs_(52,_52)
nodepairs_(52,_53)
nodepairs_(52,_54)
nodepairs_(52,_6)
nodepairs_(52,_7)
nodepairs_(52,_8)
nodepairs_(52,_9)
nodepairs_(53,_0)
nodepairs_(53,_1)
nodepairs_(53,_10)
nodepairs_(53,_11)
nodepairs_(53,_12)
nodepairs_(53,_13)
nodepairs_(53,_14)
nodepairs_(53,_15)
nodepairs_(53,_16)
nodepairs_(53,_17)
nodepairs_(53,_19)
nodepairs_(53,_21)
nodepairs_(53,_22)
nodepairs_(53,_23)
nodepairs_(53,_24)
nodepairs_(53,_25)
nodepairs_(53,_26)
nodepairs_(53,_27)
nodepairs_(53,_28)
nodepairs_(53,_29)
nodepairs_(53,_3)
nodepairs_(53,_30)
nodepairs_(53,_31)
nodepairs_(53,_32)
nodepairs_(53,_33)
nodepairs_(53,_34)
nodepairs_(53,_35)
nodepairs_(53,_36)
nodepairs_(53,_37)
nodepairs_(53,_38)
nodepairs_(53,_39)
nodepairs_(53,_40)
nodepairs_(53,_42)
nodepairs_(53,_44)
nodepairs_(53,_45)
nodepairs_(53,_46)
nodepairs_(53,_47)
nodepairs_(53,_48)
nodepairs_(53,_49)
nodepairs_(53,_5)
nodepairs_(53,_50)
nodepairs_(53,_51)
nodepairs_(53,_52)
nodepairs_(53,_53)
nodepairs_(53,_54)
nodepairs_(53,_6)
nodepairs_(53,_7)
nodepairs_(53,_8)
nodepairs_(53,_9)
nodepairs_(54,_0)
nodepairs_(54,_1)
nodepairs_(54,_10)
nodepairs_(54,_11)
nodepairs_(54,_12)
nodepairs_(54,_13)
nodepairs_(54,_14)
nodepairs_(54,_15)
nodepairs_(54,_16)
nodepairs_(54,_17)
nodepairs_(54,_19)
nodepairs_(54,_21)
nodepairs_(54,_22)
nodepairs_(54,_23)
nodepairs_(54,_24)
nodepairs_(54,_25)
nodepairs_(54,_26)
nodepairs_(54,_27)
nodepairs_(54,_28)
nodepairs_(54,_29)
nodepairs_(54,_3)
nodepairs_(54,_30)
nodepairs_(54,_31)
nodepairs_(54,_32)
nodepairs_(54,_33)
nodepairs_(54,_34)
nodepairs_(54,_35)
nodepairs_(54,_36)
nodepairs_(54,_37)
nodepairs_(54,_38)
nodepairs_(54,_39)
nodepairs_(54,_40)
nodepairs_(54,_42)
nodepairs_(54,_44)
nodepairs_(54,_45)
nodepairs_(54,_46)
nodepairs_(54,_47)
nodepairs_(54,_48)
nodepairs_(54,_49)
nodepairs_(54,_5)
nodepairs_(54,_50)
nodepairs_(54,_51)
nodepairs_(54,_52)
nodepairs_(54,_53)
nodepairs_(54,_54)
nodepairs_(54,_6)
nodepairs_(54,_7)
nodepairs_(54,_8)
nodepairs_(54,_9)
nodepairs_(6,_0)
nodepairs_(6,_1)
nodepairs_(6,_10)
nodepairs_(6,_11)
nodepairs_(6,_12)
nodepairs_(6,_13)
nodepairs_(6,_14)
nodepairs_(6,_15)
nodepairs_(6,_16)
nodepairs_(6,_17)
nodepairs_(6,_19)
nodepairs_(6,_21)
nodepairs_(6,_22)
nodepairs_(6,_23)
nodepairs_(6,_24)
nodepairs_(6,_25)
nodepairs_(6,_26)
nodepairs_(6,_27)
nodepairs_(6,_28)
nodepairs_(6,_29)
nodepairs_(6,_3)
nodepairs_(6,_30)
nodepairs_(6,_31)
nodepairs_(6,_32)
nodepairs_(6,_33)
nodepairs_(6,_34)
nodepairs_(6,_35)
nodepairs_(6,_36)
nodepairs_(6,_37)
nodepairs_(6,_38)
nodepairs_(6,_39)
nodepairs_(6,_40)
nodepairs_(6,_42)
nodepairs_(6,_44)
nodepairs_(6,_45)
nodepairs_(6,_46)
nodepairs_(6,_47)
nodepairs_(6,_48)
nodepairs_(6,_49)
nodepairs_(6,_5)
nodepairs_(6,_50)
nodepairs_(6,_51)
nodepairs_(6,_52)
nodepairs_(6,_53)
nodepairs_(6,_54)
nodepairs_(6,_6)
nodepairs_(6,_7)
nodepairs_(6,_8)
nodepairs_(6,_9)
nodepairs_(7,_0)
nodepairs_(7,_1)
nodepairs_(7,_10)
nodepairs_(7,_11)
nodepairs_(7,_12)
nodepairs_(7,_13)
nodepairs_(7,_14)
nodepairs_(7,_15)
nodepairs_(7,_16)
nodepairs_(7,_17)
nodepairs_(7,_19)
nodepairs_(7,_21)
nodepairs_(7,_22)
nodepairs_(7,_23)
nodepairs_(7,_24)
nodepairs_(7,_25)
nodepairs_(7,_26)
nodepairs_(7,_27)
nodepairs_(7,_28)
nodepairs_(7,_29)
nodepairs_(7,_3)
nodepairs_(7,_30)
nodepairs_(7,_31)
nodepairs_(7,_32)
nodepairs_(7,_33)
nodepairs_(7,_34)
nodepairs_(7,_35)
nodepairs_(7,_36)
nodepairs_(7,_37)
nodepairs_(7,_38)
nodepairs_(7,_39)
nodepairs_(7,_40)
nodepairs_(7,_42)
nodepairs_(7,_44)
nodepairs_(7,_45)
nodepairs_(7,_46)
nodepairs_(7,_47)
nodepairs_(7,_48)
nodepairs_(7,_49)
nodepairs_(7,_5)
nodepairs_(7,_50)
nodepairs_(7,_51)
nodepairs_(7,_52)
nodepairs_(7,_53)
nodepairs_(7,_54)
nodepairs_(7,_6)
nodepairs_(7,_7)
nodepairs_(7,_8)
nodepairs_(7,_9)
nodepairs_(8,_0)
nodepairs_(8,_1)
nodepairs_(8,_10)
nodepairs_(8,_11)
nodepairs_(8,_12)
nodepairs_(8,_13)
nodepairs_(8,_14)
nodepairs_(8,_15)
nodepairs_(8,_16)
nodepairs_(8,_17)
nodepairs_(8,_19)
nodepairs_(8,_21)
nodepairs_(8,_22)
nodepairs_(8,_23)
nodepairs_(8,_24)
nodepairs_(8,_25)
nodepairs_(8,_26)
nodepairs_(8,_27)
nodepairs_(8,_28)
nodepairs_(8,_29)
nodepairs_(8,_3)
nodepairs_(8,_30)
nodepairs_(8,_31)
nodepairs_(8,_32)
nodepairs_(8,_33)
nodepairs_(8,_34)
nodepairs_(8,_35)
nodepairs_(8,_36)
nodepairs_(8,_37)
nodepairs_(8,_38)
nodepairs_(8,_39)
nodepairs_(8,_40)
nodepairs_(8,_42)
nodepairs_(8,_44)
nodepairs_(8,_45)
nodepairs_(8,_46)
nodepairs_(8,_47)
nodepairs_(8,_48)
nodepairs_(8,_49)
nodepairs_(8,_5)
nodepairs_(8,_50)
nodepairs_(8,_51)
nodepairs_(8,_52)
nodepairs_(8,_53)
nodepairs_(8,_54)
nodepairs_(8,_6)
nodepairs_(8,_7)
nodepairs_(8,_8)
nodepairs_(8,_9)
nodepairs_(9,_0)
nodepairs_(9,_1)
nodepairs_(9,_10)
nodepairs_(9,_11)
nodepairs_(9,_12)
nodepairs_(9,_13)
nodepairs_(9,_14)
nodepairs_(9,_15)
nodepairs_(9,_16)
nodepairs_(9,_17)
nodepairs_(9,_19)
nodepairs_(9,_21)
nodepairs_(9,_22)
nodepairs_(9,_23)
nodepairs_(9,_24)
nodepairs_(9,_25)
nodepairs_(9,_26)
nodepairs_(9,_27)
nodepairs_(9,_28)
nodepairs_(9,_29)
nodepairs_(9,_3)
nodepairs_(9,_30)
nodepairs_(9,_31)
nodepairs_(9,_32)
nodepairs_(9,_33)
nodepairs_(9,_34)
nodepairs_(9,_35)
nodepairs_(9,_36)
nodepairs_(9,_37)
nodepairs_(9,_38)
nodepairs_(9,_39)
nodepairs_(9,_40)
nodepairs_(9,_42)
nodepairs_(9,_44)
nodepairs_(9,_45)
nodepairs_(9,_46)
nodepairs_(9,_47)
nodepairs_(9,_48)
nodepairs_(9,_49)
nodepairs_(9,_5)
nodepairs_(9,_50)
nodepairs_(9,_51)
nodepairs_(9,_52)
nodepairs_(9,_53)
nodepairs_(9,_54)
nodepairs_(9,_6)
nodepairs_(9,_7)
nodepairs_(9,_8)
nodepairs_(9,_9)
End
